    1C
    1UUSER                                                              
    1UDATE              18.january.2014                                 
    1UTIME              22:32:21                                        
    1UHOST                                                              
    1UPGM               CalculiX                                        
    1UDIR                                                               
    1UDBN                                                               
    2C                           419                                     1
 -1      1219 0.00000E+00 0.00000E+00-4.00000E-03
 -1      1220 0.00000E+00 0.00000E+00 0.00000E+00
 -1      1221 0.00000E+00 0.00000E+00 4.00000E-03
 -1      1227 0.00000E+00 5.00000E-02-4.00000E-03
 -1      1229 0.00000E+00 5.00000E-02 4.00000E-03
 -1      1235 0.00000E+00 1.00000E-01-4.00000E-03
 -1      1236 0.00000E+00 1.00000E-01 0.00000E+00
 -1      1237 0.00000E+00 1.00000E-01 4.00000E-03
 -1      1243 0.00000E+00 1.50000E-01-4.00000E-03
 -1      1245 0.00000E+00 1.50000E-01 4.00000E-03
 -1      1251 0.00000E+00 2.00000E-01-4.00000E-03
 -1      1252 0.00000E+00 2.00000E-01 0.00000E+00
 -1      1253 0.00000E+00 2.00000E-01 4.00000E-03
 -1      1259 0.00000E+00 2.50000E-01-4.00000E-03
 -1      1261 0.00000E+00 2.50000E-01 4.00000E-03
 -1      1267 0.00000E+00 3.00000E-01-4.00000E-03
 -1      1268 0.00000E+00 3.00000E-01 0.00000E+00
 -1      1269 0.00000E+00 3.00000E-01 4.00000E-03
 -1      1275 0.00000E+00 3.50000E-01-4.00000E-03
 -1      1277 0.00000E+00 3.50000E-01 4.00000E-03
 -1      1283 0.00000E+00 4.00000E-01-4.00000E-03
 -1      1284 0.00000E+00 4.00000E-01 0.00000E+00
 -1      1285 0.00000E+00 4.00000E-01 4.00000E-03
 -1      1291 4.16667E-02 2.40417E-02-4.00000E-03
 -1      1293 4.16667E-02 2.40417E-02 4.00000E-03
 -1      1294 4.16667E-02 1.24042E-01-4.00000E-03
 -1      1296 4.16667E-02 1.24042E-01 4.00000E-03
 -1      1297 4.16667E-02 2.24042E-01-4.00000E-03
 -1      1299 4.16667E-02 2.24042E-01 4.00000E-03
 -1      1300 4.16667E-02 3.24042E-01-4.00000E-03
 -1      1302 4.16667E-02 3.24042E-01 4.00000E-03
 -1      1303 4.16667E-02 4.24042E-01-4.00000E-03
 -1      1305 4.16667E-02 4.24042E-01 4.00000E-03
 -1      1306 8.33333E-02 4.80833E-02-4.00000E-03
 -1      1307 8.33333E-02 4.80833E-02 0.00000E+00
 -1      1308 8.33333E-02 4.80833E-02 4.00000E-03
 -1      1309 8.33333E-02 9.80833E-02-4.00000E-03
 -1      1311 8.33333E-02 9.80833E-02 4.00000E-03
 -1      1312 8.33333E-02 1.48083E-01-4.00000E-03
 -1      1313 8.33333E-02 1.48083E-01 0.00000E+00
 -1      1314 8.33333E-02 1.48083E-01 4.00000E-03
 -1      1315 8.33333E-02 1.98083E-01-4.00000E-03
 -1      1317 8.33333E-02 1.98083E-01 4.00000E-03
 -1      1318 8.33333E-02 2.48083E-01-4.00000E-03
 -1      1319 8.33333E-02 2.48083E-01 0.00000E+00
 -1      1320 8.33333E-02 2.48083E-01 4.00000E-03
 -1      1321 8.33333E-02 2.98083E-01-4.00000E-03
 -1      1323 8.33333E-02 2.98083E-01 4.00000E-03
 -1      1324 8.33333E-02 3.48083E-01-4.00000E-03
 -1      1325 8.33333E-02 3.48083E-01 0.00000E+00
 -1      1326 8.33333E-02 3.48083E-01 4.00000E-03
 -1      1327 8.33333E-02 3.98083E-01-4.00000E-03
 -1      1329 8.33333E-02 3.98083E-01 4.00000E-03
 -1      1330 8.33333E-02 4.48083E-01-4.00000E-03
 -1      1331 8.33333E-02 4.48083E-01 0.00000E+00
 -1      1332 8.33333E-02 4.48083E-01 4.00000E-03
 -1      1333 1.25000E-01 7.21250E-02-4.00000E-03
 -1      1335 1.25000E-01 7.21250E-02 4.00000E-03
 -1      1336 1.25000E-01 1.72125E-01-4.00000E-03
 -1      1338 1.25000E-01 1.72125E-01 4.00000E-03
 -1      1339 1.25000E-01 2.72125E-01-4.00000E-03
 -1      1341 1.25000E-01 2.72125E-01 4.00000E-03
 -1      1342 1.25000E-01 3.72125E-01-4.00000E-03
 -1      1344 1.25000E-01 3.72125E-01 4.00000E-03
 -1      1345 1.25000E-01 4.72125E-01-4.00000E-03
 -1      1347 1.25000E-01 4.72125E-01 4.00000E-03
 -1      1348 1.66667E-01 9.61667E-02-4.00000E-03
 -1      1349 1.66667E-01 9.61667E-02 0.00000E+00
 -1      1350 1.66667E-01 9.61667E-02 4.00000E-03
 -1      1351 1.66667E-01 1.46167E-01-4.00000E-03
 -1      1353 1.66667E-01 1.46167E-01 4.00000E-03
 -1      1354 1.66667E-01 1.96167E-01-4.00000E-03
 -1      1355 1.66667E-01 1.96167E-01 0.00000E+00
 -1      1356 1.66667E-01 1.96167E-01 4.00000E-03
 -1      1357 1.66667E-01 2.46167E-01-4.00000E-03
 -1      1359 1.66667E-01 2.46167E-01 4.00000E-03
 -1      1360 1.66667E-01 2.96167E-01-4.00000E-03
 -1      1361 1.66667E-01 2.96167E-01 0.00000E+00
 -1      1362 1.66667E-01 2.96167E-01 4.00000E-03
 -1      1363 1.66667E-01 3.46167E-01-4.00000E-03
 -1      1365 1.66667E-01 3.46167E-01 4.00000E-03
 -1      1366 1.66667E-01 3.96167E-01-4.00000E-03
 -1      1367 1.66667E-01 3.96167E-01 0.00000E+00
 -1      1368 1.66667E-01 3.96167E-01 4.00000E-03
 -1      1369 1.66667E-01 4.46167E-01-4.00000E-03
 -1      1371 1.66667E-01 4.46167E-01 4.00000E-03
 -1      1372 1.66667E-01 4.96167E-01-4.00000E-03
 -1      1373 1.66667E-01 4.96167E-01 0.00000E+00
 -1      1374 1.66667E-01 4.96167E-01 4.00000E-03
 -1      1375 2.08333E-01 1.20208E-01-4.00000E-03
 -1      1377 2.08333E-01 1.20208E-01 4.00000E-03
 -1      1378 2.08333E-01 2.20208E-01-4.00000E-03
 -1      1380 2.08333E-01 2.20208E-01 4.00000E-03
 -1      1381 2.08333E-01 3.20208E-01-4.00000E-03
 -1      1383 2.08333E-01 3.20208E-01 4.00000E-03
 -1      1384 2.08333E-01 4.20208E-01-4.00000E-03
 -1      1386 2.08333E-01 4.20208E-01 4.00000E-03
 -1      1387 2.08333E-01 5.20208E-01-4.00000E-03
 -1      1389 2.08333E-01 5.20208E-01 4.00000E-03
 -1      1390 2.50000E-01 1.44250E-01-4.00000E-03
 -1      1391 2.50000E-01 1.44250E-01 0.00000E+00
 -1      1392 2.50000E-01 1.44250E-01 4.00000E-03
 -1      1393 2.50000E-01 1.94250E-01-4.00000E-03
 -1      1395 2.50000E-01 1.94250E-01 4.00000E-03
 -1      1396 2.50000E-01 2.44250E-01-4.00000E-03
 -1      1397 2.50000E-01 2.44250E-01 0.00000E+00
 -1      1398 2.50000E-01 2.44250E-01 4.00000E-03
 -1      1399 2.50000E-01 2.94250E-01-4.00000E-03
 -1      1401 2.50000E-01 2.94250E-01 4.00000E-03
 -1      1402 2.50000E-01 3.44250E-01-4.00000E-03
 -1      1403 2.50000E-01 3.44250E-01 0.00000E+00
 -1      1404 2.50000E-01 3.44250E-01 4.00000E-03
 -1      1405 2.50000E-01 3.94250E-01-4.00000E-03
 -1      1407 2.50000E-01 3.94250E-01 4.00000E-03
 -1      1408 2.50000E-01 4.44250E-01-4.00000E-03
 -1      1409 2.50000E-01 4.44250E-01 0.00000E+00
 -1      1410 2.50000E-01 4.44250E-01 4.00000E-03
 -1      1411 2.50000E-01 4.94250E-01-4.00000E-03
 -1      1413 2.50000E-01 4.94250E-01 4.00000E-03
 -1      1414 2.50000E-01 5.44250E-01-4.00000E-03
 -1      1415 2.50000E-01 5.44250E-01 0.00000E+00
 -1      1416 2.50000E-01 5.44250E-01 4.00000E-03
 -1      1417 2.91667E-01 1.68292E-01-4.00000E-03
 -1      1419 2.91667E-01 1.68292E-01 4.00000E-03
 -1      1420 2.91667E-01 2.68292E-01-4.00000E-03
 -1      1422 2.91667E-01 2.68292E-01 4.00000E-03
 -1      1423 2.91667E-01 3.68292E-01-4.00000E-03
 -1      1425 2.91667E-01 3.68292E-01 4.00000E-03
 -1      1426 2.91667E-01 4.68292E-01-4.00000E-03
 -1      1428 2.91667E-01 4.68292E-01 4.00000E-03
 -1      1429 2.91667E-01 5.68292E-01-4.00000E-03
 -1      1431 2.91667E-01 5.68292E-01 4.00000E-03
 -1      1432 3.33333E-01 1.92333E-01-4.00000E-03
 -1      1433 3.33333E-01 1.92333E-01 0.00000E+00
 -1      1434 3.33333E-01 1.92333E-01 4.00000E-03
 -1      1435 3.33333E-01 2.42333E-01-4.00000E-03
 -1      1437 3.33333E-01 2.42333E-01 4.00000E-03
 -1      1438 3.33333E-01 2.92333E-01-4.00000E-03
 -1      1439 3.33333E-01 2.92333E-01 0.00000E+00
 -1      1440 3.33333E-01 2.92333E-01 4.00000E-03
 -1      1441 3.33333E-01 3.42333E-01-4.00000E-03
 -1      1443 3.33333E-01 3.42333E-01 4.00000E-03
 -1      1444 3.33333E-01 3.92333E-01-4.00000E-03
 -1      1445 3.33333E-01 3.92333E-01 0.00000E+00
 -1      1446 3.33333E-01 3.92333E-01 4.00000E-03
 -1      1447 3.33333E-01 4.42333E-01-4.00000E-03
 -1      1449 3.33333E-01 4.42333E-01 4.00000E-03
 -1      1450 3.33333E-01 4.92333E-01-4.00000E-03
 -1      1451 3.33333E-01 4.92333E-01 0.00000E+00
 -1      1452 3.33333E-01 4.92333E-01 4.00000E-03
 -1      1453 3.33333E-01 5.42333E-01-4.00000E-03
 -1      1455 3.33333E-01 5.42333E-01 4.00000E-03
 -1      1456 3.33333E-01 5.92333E-01-4.00000E-03
 -1      1457 3.33333E-01 5.92333E-01 0.00000E+00
 -1      1458 3.33333E-01 5.92333E-01 4.00000E-03
 -1      1459 3.75000E-01 2.16375E-01-4.00000E-03
 -1      1461 3.75000E-01 2.16375E-01 4.00000E-03
 -1      1462 3.75000E-01 3.16375E-01-4.00000E-03
 -1      1464 3.75000E-01 3.16375E-01 4.00000E-03
 -1      1465 3.75000E-01 4.16375E-01-4.00000E-03
 -1      1467 3.75000E-01 4.16375E-01 4.00000E-03
 -1      1468 3.75000E-01 5.16375E-01-4.00000E-03
 -1      1470 3.75000E-01 5.16375E-01 4.00000E-03
 -1      1471 3.75000E-01 6.16375E-01-4.00000E-03
 -1      1473 3.75000E-01 6.16375E-01 4.00000E-03
 -1      1474 4.16667E-01 2.40417E-01-4.00000E-03
 -1      1475 4.16667E-01 2.40417E-01 0.00000E+00
 -1      1476 4.16667E-01 2.40417E-01 4.00000E-03
 -1      1477 4.16667E-01 2.90417E-01-4.00000E-03
 -1      1479 4.16667E-01 2.90417E-01 4.00000E-03
 -1      1480 4.16667E-01 3.40417E-01-4.00000E-03
 -1      1481 4.16667E-01 3.40417E-01 0.00000E+00
 -1      1482 4.16667E-01 3.40417E-01 4.00000E-03
 -1      1483 4.16667E-01 3.90417E-01-4.00000E-03
 -1      1485 4.16667E-01 3.90417E-01 4.00000E-03
 -1      1486 4.16667E-01 4.40417E-01-4.00000E-03
 -1      1487 4.16667E-01 4.40417E-01 0.00000E+00
 -1      1488 4.16667E-01 4.40417E-01 4.00000E-03
 -1      1489 4.16667E-01 4.90417E-01-4.00000E-03
 -1      1491 4.16667E-01 4.90417E-01 4.00000E-03
 -1      1492 4.16667E-01 5.40417E-01-4.00000E-03
 -1      1493 4.16667E-01 5.40417E-01 0.00000E+00
 -1      1494 4.16667E-01 5.40417E-01 4.00000E-03
 -1      1495 4.16667E-01 5.90417E-01-4.00000E-03
 -1      1497 4.16667E-01 5.90417E-01 4.00000E-03
 -1      1498 4.16667E-01 6.40417E-01-4.00000E-03
 -1      1499 4.16667E-01 6.40417E-01 0.00000E+00
 -1      1500 4.16667E-01 6.40417E-01 4.00000E-03
 -1      1501 4.58333E-01 2.64458E-01-4.00000E-03
 -1      1503 4.58333E-01 2.64458E-01 4.00000E-03
 -1      1504 4.58333E-01 3.64458E-01-4.00000E-03
 -1      1506 4.58333E-01 3.64458E-01 4.00000E-03
 -1      1507 4.58333E-01 4.64458E-01-4.00000E-03
 -1      1509 4.58333E-01 4.64458E-01 4.00000E-03
 -1      1510 4.58333E-01 5.64458E-01-4.00000E-03
 -1      1512 4.58333E-01 5.64458E-01 4.00000E-03
 -1      1513 4.58333E-01 6.64458E-01-4.00000E-03
 -1      1515 4.58333E-01 6.64458E-01 4.00000E-03
 -1      1516 5.00000E-01 2.88500E-01-4.00000E-03
 -1      1517 5.00000E-01 2.88500E-01 0.00000E+00
 -1      1518 5.00000E-01 2.88500E-01 4.00000E-03
 -1      1519 5.00000E-01 3.38500E-01-4.00000E-03
 -1      1521 5.00000E-01 3.38500E-01 4.00000E-03
 -1      1522 5.00000E-01 3.88500E-01-4.00000E-03
 -1      1523 5.00000E-01 3.88500E-01 0.00000E+00
 -1      1524 5.00000E-01 3.88500E-01 4.00000E-03
 -1      1525 5.00000E-01 4.38500E-01-4.00000E-03
 -1      1527 5.00000E-01 4.38500E-01 4.00000E-03
 -1      1528 5.00000E-01 4.88500E-01-4.00000E-03
 -1      1529 5.00000E-01 4.88500E-01 0.00000E+00
 -1      1530 5.00000E-01 4.88500E-01 4.00000E-03
 -1      1531 5.00000E-01 5.38500E-01-4.00000E-03
 -1      1533 5.00000E-01 5.38500E-01 4.00000E-03
 -1      1534 5.00000E-01 5.88500E-01-4.00000E-03
 -1      1535 5.00000E-01 5.88500E-01 0.00000E+00
 -1      1536 5.00000E-01 5.88500E-01 4.00000E-03
 -1      1537 5.00000E-01 6.38500E-01-4.00000E-03
 -1      1539 5.00000E-01 6.38500E-01 4.00000E-03
 -1      1540 5.00000E-01 6.88500E-01-4.00000E-03
 -1      1541 5.00000E-01 6.88500E-01 0.00000E+00
 -1      1542 5.00000E-01 6.88500E-01 4.00000E-03
 -1      1543 5.41667E-01 3.12542E-01-4.00000E-03
 -1      1545 5.41667E-01 3.12542E-01 4.00000E-03
 -1      1546 5.41667E-01 4.12542E-01-4.00000E-03
 -1      1548 5.41667E-01 4.12542E-01 4.00000E-03
 -1      1549 5.41667E-01 5.12542E-01-4.00000E-03
 -1      1551 5.41667E-01 5.12542E-01 4.00000E-03
 -1      1552 5.41667E-01 6.12542E-01-4.00000E-03
 -1      1554 5.41667E-01 6.12542E-01 4.00000E-03
 -1      1555 5.41667E-01 7.12542E-01-4.00000E-03
 -1      1557 5.41667E-01 7.12542E-01 4.00000E-03
 -1      1558 5.83333E-01 3.36583E-01-4.00000E-03
 -1      1559 5.83333E-01 3.36583E-01 0.00000E+00
 -1      1560 5.83333E-01 3.36583E-01 4.00000E-03
 -1      1561 5.83333E-01 3.86583E-01-4.00000E-03
 -1      1563 5.83333E-01 3.86583E-01 4.00000E-03
 -1      1564 5.83333E-01 4.36583E-01-4.00000E-03
 -1      1565 5.83333E-01 4.36583E-01 0.00000E+00
 -1      1566 5.83333E-01 4.36583E-01 4.00000E-03
 -1      1567 5.83333E-01 4.86583E-01-4.00000E-03
 -1      1569 5.83333E-01 4.86583E-01 4.00000E-03
 -1      1570 5.83333E-01 5.36583E-01-4.00000E-03
 -1      1571 5.83333E-01 5.36583E-01 0.00000E+00
 -1      1572 5.83333E-01 5.36583E-01 4.00000E-03
 -1      1573 5.83333E-01 5.86583E-01-4.00000E-03
 -1      1575 5.83333E-01 5.86583E-01 4.00000E-03
 -1      1576 5.83333E-01 6.36583E-01-4.00000E-03
 -1      1577 5.83333E-01 6.36583E-01 0.00000E+00
 -1      1578 5.83333E-01 6.36583E-01 4.00000E-03
 -1      1579 5.83333E-01 6.86583E-01-4.00000E-03
 -1      1581 5.83333E-01 6.86583E-01 4.00000E-03
 -1      1582 5.83333E-01 7.36583E-01-4.00000E-03
 -1      1583 5.83333E-01 7.36583E-01 0.00000E+00
 -1      1584 5.83333E-01 7.36583E-01 4.00000E-03
 -1      1585 6.25000E-01 3.60625E-01-4.00000E-03
 -1      1587 6.25000E-01 3.60625E-01 4.00000E-03
 -1      1588 6.25000E-01 4.60625E-01-4.00000E-03
 -1      1590 6.25000E-01 4.60625E-01 4.00000E-03
 -1      1591 6.25000E-01 5.60625E-01-4.00000E-03
 -1      1593 6.25000E-01 5.60625E-01 4.00000E-03
 -1      1594 6.25000E-01 6.60625E-01-4.00000E-03
 -1      1596 6.25000E-01 6.60625E-01 4.00000E-03
 -1      1597 6.25000E-01 7.60625E-01-4.00000E-03
 -1      1599 6.25000E-01 7.60625E-01 4.00000E-03
 -1      1600 6.66667E-01 3.84667E-01-4.00000E-03
 -1      1601 6.66667E-01 3.84667E-01 0.00000E+00
 -1      1602 6.66667E-01 3.84667E-01 4.00000E-03
 -1      1603 6.66667E-01 4.34667E-01-4.00000E-03
 -1      1605 6.66667E-01 4.34667E-01 4.00000E-03
 -1      1606 6.66667E-01 4.84667E-01-4.00000E-03
 -1      1607 6.66667E-01 4.84667E-01 0.00000E+00
 -1      1608 6.66667E-01 4.84667E-01 4.00000E-03
 -1      1609 6.66667E-01 5.34667E-01-4.00000E-03
 -1      1611 6.66667E-01 5.34667E-01 4.00000E-03
 -1      1612 6.66667E-01 5.84667E-01-4.00000E-03
 -1      1613 6.66667E-01 5.84667E-01 0.00000E+00
 -1      1614 6.66667E-01 5.84667E-01 4.00000E-03
 -1      1615 6.66667E-01 6.34667E-01-4.00000E-03
 -1      1617 6.66667E-01 6.34667E-01 4.00000E-03
 -1      1618 6.66667E-01 6.84667E-01-4.00000E-03
 -1      1619 6.66667E-01 6.84667E-01 0.00000E+00
 -1      1620 6.66667E-01 6.84667E-01 4.00000E-03
 -1      1621 6.66667E-01 7.34667E-01-4.00000E-03
 -1      1623 6.66667E-01 7.34667E-01 4.00000E-03
 -1      1624 6.66667E-01 7.84667E-01-4.00000E-03
 -1      1625 6.66667E-01 7.84667E-01 0.00000E+00
 -1      1626 6.66667E-01 7.84667E-01 4.00000E-03
 -1      1627 7.08333E-01 4.08708E-01-4.00000E-03
 -1      1629 7.08333E-01 4.08708E-01 4.00000E-03
 -1      1630 7.08333E-01 5.08708E-01-4.00000E-03
 -1      1632 7.08333E-01 5.08708E-01 4.00000E-03
 -1      1633 7.08333E-01 6.08708E-01-4.00000E-03
 -1      1635 7.08333E-01 6.08708E-01 4.00000E-03
 -1      1636 7.08333E-01 7.08708E-01-4.00000E-03
 -1      1638 7.08333E-01 7.08708E-01 4.00000E-03
 -1      1639 7.08333E-01 8.08708E-01-4.00000E-03
 -1      1641 7.08333E-01 8.08708E-01 4.00000E-03
 -1      1642 7.50000E-01 4.32750E-01-4.00000E-03
 -1      1643 7.50000E-01 4.32750E-01 0.00000E+00
 -1      1644 7.50000E-01 4.32750E-01 4.00000E-03
 -1      1645 7.50000E-01 4.82750E-01-4.00000E-03
 -1      1647 7.50000E-01 4.82750E-01 4.00000E-03
 -1      1648 7.50000E-01 5.32750E-01-4.00000E-03
 -1      1649 7.50000E-01 5.32750E-01 0.00000E+00
 -1      1650 7.50000E-01 5.32750E-01 4.00000E-03
 -1      1651 7.50000E-01 5.82750E-01-4.00000E-03
 -1      1653 7.50000E-01 5.82750E-01 4.00000E-03
 -1      1654 7.50000E-01 6.32750E-01-4.00000E-03
 -1      1655 7.50000E-01 6.32750E-01 0.00000E+00
 -1      1656 7.50000E-01 6.32750E-01 4.00000E-03
 -1      1657 7.50000E-01 6.82750E-01-4.00000E-03
 -1      1659 7.50000E-01 6.82750E-01 4.00000E-03
 -1      1660 7.50000E-01 7.32750E-01-4.00000E-03
 -1      1661 7.50000E-01 7.32750E-01 0.00000E+00
 -1      1662 7.50000E-01 7.32750E-01 4.00000E-03
 -1      1663 7.50000E-01 7.82750E-01-4.00000E-03
 -1      1665 7.50000E-01 7.82750E-01 4.00000E-03
 -1      1666 7.50000E-01 8.32750E-01-4.00000E-03
 -1      1667 7.50000E-01 8.32750E-01 0.00000E+00
 -1      1668 7.50000E-01 8.32750E-01 4.00000E-03
 -1      1669 7.91667E-01 4.56792E-01-4.00000E-03
 -1      1671 7.91667E-01 4.56792E-01 4.00000E-03
 -1      1672 7.91667E-01 5.56792E-01-4.00000E-03
 -1      1674 7.91667E-01 5.56792E-01 4.00000E-03
 -1      1675 7.91667E-01 6.56792E-01-4.00000E-03
 -1      1677 7.91667E-01 6.56792E-01 4.00000E-03
 -1      1678 7.91667E-01 7.56792E-01-4.00000E-03
 -1      1680 7.91667E-01 7.56792E-01 4.00000E-03
 -1      1681 7.91667E-01 8.56792E-01-4.00000E-03
 -1      1683 7.91667E-01 8.56792E-01 4.00000E-03
 -1      1684 8.33333E-01 4.80833E-01-4.00000E-03
 -1      1685 8.33333E-01 4.80833E-01 0.00000E+00
 -1      1686 8.33333E-01 4.80833E-01 4.00000E-03
 -1      1687 8.33333E-01 5.30833E-01-4.00000E-03
 -1      1689 8.33333E-01 5.30833E-01 4.00000E-03
 -1      1690 8.33333E-01 5.80833E-01-4.00000E-03
 -1      1691 8.33333E-01 5.80833E-01 0.00000E+00
 -1      1692 8.33333E-01 5.80833E-01 4.00000E-03
 -1      1693 8.33333E-01 6.30833E-01-4.00000E-03
 -1      1695 8.33333E-01 6.30833E-01 4.00000E-03
 -1      1696 8.33333E-01 6.80833E-01-4.00000E-03
 -1      1697 8.33333E-01 6.80833E-01 0.00000E+00
 -1      1698 8.33333E-01 6.80833E-01 4.00000E-03
 -1      1699 8.33333E-01 7.30833E-01-4.00000E-03
 -1      1701 8.33333E-01 7.30833E-01 4.00000E-03
 -1      1702 8.33333E-01 7.80833E-01-4.00000E-03
 -1      1703 8.33333E-01 7.80833E-01 0.00000E+00
 -1      1704 8.33333E-01 7.80833E-01 4.00000E-03
 -1      1705 8.33333E-01 8.30833E-01-4.00000E-03
 -1      1707 8.33333E-01 8.30833E-01 4.00000E-03
 -1      1708 8.33333E-01 8.80833E-01-4.00000E-03
 -1      1709 8.33333E-01 8.80833E-01 0.00000E+00
 -1      1710 8.33333E-01 8.80833E-01 4.00000E-03
 -1      1711 8.75000E-01 5.04875E-01-4.00000E-03
 -1      1713 8.75000E-01 5.04875E-01 4.00000E-03
 -1      1714 8.75000E-01 6.04875E-01-4.00000E-03
 -1      1716 8.75000E-01 6.04875E-01 4.00000E-03
 -1      1717 8.75000E-01 7.04875E-01-4.00000E-03
 -1      1719 8.75000E-01 7.04875E-01 4.00000E-03
 -1      1720 8.75000E-01 8.04875E-01-4.00000E-03
 -1      1722 8.75000E-01 8.04875E-01 4.00000E-03
 -1      1723 8.75000E-01 9.04875E-01-4.00000E-03
 -1      1725 8.75000E-01 9.04875E-01 4.00000E-03
 -1      1726 9.16667E-01 5.28917E-01-4.00000E-03
 -1      1727 9.16667E-01 5.28917E-01 0.00000E+00
 -1      1728 9.16667E-01 5.28917E-01 4.00000E-03
 -1      1729 9.16667E-01 5.78917E-01-4.00000E-03
 -1      1731 9.16667E-01 5.78917E-01 4.00000E-03
 -1      1732 9.16667E-01 6.28917E-01-4.00000E-03
 -1      1733 9.16667E-01 6.28917E-01 0.00000E+00
 -1      1734 9.16667E-01 6.28917E-01 4.00000E-03
 -1      1735 9.16667E-01 6.78917E-01-4.00000E-03
 -1      1737 9.16667E-01 6.78917E-01 4.00000E-03
 -1      1738 9.16667E-01 7.28917E-01-4.00000E-03
 -1      1739 9.16667E-01 7.28917E-01 0.00000E+00
 -1      1740 9.16667E-01 7.28917E-01 4.00000E-03
 -1      1741 9.16667E-01 7.78917E-01-4.00000E-03
 -1      1743 9.16667E-01 7.78917E-01 4.00000E-03
 -1      1744 9.16667E-01 8.28917E-01-4.00000E-03
 -1      1745 9.16667E-01 8.28917E-01 0.00000E+00
 -1      1746 9.16667E-01 8.28917E-01 4.00000E-03
 -1      1747 9.16667E-01 8.78917E-01-4.00000E-03
 -1      1749 9.16667E-01 8.78917E-01 4.00000E-03
 -1      1750 9.16667E-01 9.28917E-01-4.00000E-03
 -1      1751 9.16667E-01 9.28917E-01 0.00000E+00
 -1      1752 9.16667E-01 9.28917E-01 4.00000E-03
 -1      1753 9.58333E-01 5.52958E-01-4.00000E-03
 -1      1755 9.58333E-01 5.52958E-01 4.00000E-03
 -1      1756 9.58333E-01 6.52958E-01-4.00000E-03
 -1      1758 9.58333E-01 6.52958E-01 4.00000E-03
 -1      1759 9.58333E-01 7.52958E-01-4.00000E-03
 -1      1761 9.58333E-01 7.52958E-01 4.00000E-03
 -1      1762 9.58333E-01 8.52958E-01-4.00000E-03
 -1      1764 9.58333E-01 8.52958E-01 4.00000E-03
 -1      1765 9.58333E-01 9.52958E-01-4.00000E-03
 -1      1767 9.58333E-01 9.52958E-01 4.00000E-03
 -1      1768 1.00000E+00 5.77000E-01-4.00000E-03
 -1      1769 1.00000E+00 5.77000E-01 0.00000E+00
 -1      1770 1.00000E+00 5.77000E-01 4.00000E-03
 -1      1771 1.00000E+00 6.27000E-01-4.00000E-03
 -1      1773 1.00000E+00 6.27000E-01 4.00000E-03
 -1      1774 1.00000E+00 6.77000E-01-4.00000E-03
 -1      1775 1.00000E+00 6.77000E-01 0.00000E+00
 -1      1776 1.00000E+00 6.77000E-01 4.00000E-03
 -1      1777 1.00000E+00 7.27000E-01-4.00000E-03
 -1      1779 1.00000E+00 7.27000E-01 4.00000E-03
 -1      1780 1.00000E+00 7.77000E-01-4.00000E-03
 -1      1781 1.00000E+00 7.77000E-01 0.00000E+00
 -1      1782 1.00000E+00 7.77000E-01 4.00000E-03
 -1      1783 1.00000E+00 8.27000E-01-4.00000E-03
 -1      1785 1.00000E+00 8.27000E-01 4.00000E-03
 -1      1786 1.00000E+00 8.77000E-01-4.00000E-03
 -1      1787 1.00000E+00 8.77000E-01 0.00000E+00
 -1      1788 1.00000E+00 8.77000E-01 4.00000E-03
 -1      1789 1.00000E+00 9.27000E-01-4.00000E-03
 -1      1791 1.00000E+00 9.27000E-01 4.00000E-03
 -1      1792 1.00000E+00 9.77000E-01-4.00000E-03
 -1      1793 1.00000E+00 9.77000E-01 0.00000E+00
 -1      1794 1.00000E+00 9.77000E-01 4.00000E-03
 -3
    3C                            48                                     1
 -1         1    4    0METAL
 -2      1219      1306      1312      1235      1221      1308      1314      1237      1291      1309
 -2      1294      1227      1220      1307      1313      1236      1293      1311      1296      1229
 -1         2    4    0METAL
 -2      1235      1312      1318      1251      1237      1314      1320      1253      1294      1315
 -2      1297      1243      1236      1313      1319      1252      1296      1317      1299      1245
 -1         3    4    0METAL
 -2      1251      1318      1324      1267      1253      1320      1326      1269      1297      1321
 -2      1300      1259      1252      1319      1325      1268      1299      1323      1302      1261
 -1         4    4    0METAL
 -2      1267      1324      1330      1283      1269      1326      1332      1285      1300      1327
 -2      1303      1275      1268      1325      1331      1284      1302      1329      1305      1277
 -1        11    4    0METAL
 -2      1306      1348      1354      1312      1308      1350      1356      1314      1333      1351
 -2      1336      1309      1307      1349      1355      1313      1335      1353      1338      1311
 -1        12    4    0METAL
 -2      1312      1354      1360      1318      1314      1356      1362      1320      1336      1357
 -2      1339      1315      1313      1355      1361      1319      1338      1359      1341      1317
 -1        13    4    0METAL
 -2      1318      1360      1366      1324      1320      1362      1368      1326      1339      1363
 -2      1342      1321      1319      1361      1367      1325      1341      1365      1344      1323
 -1        14    4    0METAL
 -2      1324      1366      1372      1330      1326      1368      1374      1332      1342      1369
 -2      1345      1327      1325      1367      1373      1331      1344      1371      1347      1329
 -1        21    4    0METAL
 -2      1348      1390      1396      1354      1350      1392      1398      1356      1375      1393
 -2      1378      1351      1349      1391      1397      1355      1377      1395      1380      1353
 -1        22    4    0METAL
 -2      1354      1396      1402      1360      1356      1398      1404      1362      1378      1399
 -2      1381      1357      1355      1397      1403      1361      1380      1401      1383      1359
 -1        23    4    0METAL
 -2      1360      1402      1408      1366      1362      1404      1410      1368      1381      1405
 -2      1384      1363      1361      1403      1409      1367      1383      1407      1386      1365
 -1        24    4    0METAL
 -2      1366      1408      1414      1372      1368      1410      1416      1374      1384      1411
 -2      1387      1369      1367      1409      1415      1373      1386      1413      1389      1371
 -1        31    4    0METAL
 -2      1390      1432      1438      1396      1392      1434      1440      1398      1417      1435
 -2      1420      1393      1391      1433      1439      1397      1419      1437      1422      1395
 -1        32    4    0METAL
 -2      1396      1438      1444      1402      1398      1440      1446      1404      1420      1441
 -2      1423      1399      1397      1439      1445      1403      1422      1443      1425      1401
 -1        33    4    0METAL
 -2      1402      1444      1450      1408      1404      1446      1452      1410      1423      1447
 -2      1426      1405      1403      1445      1451      1409      1425      1449      1428      1407
 -1        34    4    0METAL
 -2      1408      1450      1456      1414      1410      1452      1458      1416      1426      1453
 -2      1429      1411      1409      1451      1457      1415      1428      1455      1431      1413
 -1        41    4    0METAL
 -2      1432      1474      1480      1438      1434      1476      1482      1440      1459      1477
 -2      1462      1435      1433      1475      1481      1439      1461      1479      1464      1437
 -1        42    4    0METAL
 -2      1438      1480      1486      1444      1440      1482      1488      1446      1462      1483
 -2      1465      1441      1439      1481      1487      1445      1464      1485      1467      1443
 -1        43    4    0METAL
 -2      1444      1486      1492      1450      1446      1488      1494      1452      1465      1489
 -2      1468      1447      1445      1487      1493      1451      1467      1491      1470      1449
 -1        44    4    0METAL
 -2      1450      1492      1498      1456      1452      1494      1500      1458      1468      1495
 -2      1471      1453      1451      1493      1499      1457      1470      1497      1473      1455
 -1        51    4    0METAL
 -2      1474      1516      1522      1480      1476      1518      1524      1482      1501      1519
 -2      1504      1477      1475      1517      1523      1481      1503      1521      1506      1479
 -1        52    4    0METAL
 -2      1480      1522      1528      1486      1482      1524      1530      1488      1504      1525
 -2      1507      1483      1481      1523      1529      1487      1506      1527      1509      1485
 -1        53    4    0METAL
 -2      1486      1528      1534      1492      1488      1530      1536      1494      1507      1531
 -2      1510      1489      1487      1529      1535      1493      1509      1533      1512      1491
 -1        54    4    0METAL
 -2      1492      1534      1540      1498      1494      1536      1542      1500      1510      1537
 -2      1513      1495      1493      1535      1541      1499      1512      1539      1515      1497
 -1        61    4    0METAL
 -2      1516      1558      1564      1522      1518      1560      1566      1524      1543      1561
 -2      1546      1519      1517      1559      1565      1523      1545      1563      1548      1521
 -1        62    4    0METAL
 -2      1522      1564      1570      1528      1524      1566      1572      1530      1546      1567
 -2      1549      1525      1523      1565      1571      1529      1548      1569      1551      1527
 -1        63    4    0METAL
 -2      1528      1570      1576      1534      1530      1572      1578      1536      1549      1573
 -2      1552      1531      1529      1571      1577      1535      1551      1575      1554      1533
 -1        64    4    0METAL
 -2      1534      1576      1582      1540      1536      1578      1584      1542      1552      1579
 -2      1555      1537      1535      1577      1583      1541      1554      1581      1557      1539
 -1        71    4    0METAL
 -2      1558      1600      1606      1564      1560      1602      1608      1566      1585      1603
 -2      1588      1561      1559      1601      1607      1565      1587      1605      1590      1563
 -1        72    4    0METAL
 -2      1564      1606      1612      1570      1566      1608      1614      1572      1588      1609
 -2      1591      1567      1565      1607      1613      1571      1590      1611      1593      1569
 -1        73    4    0METAL
 -2      1570      1612      1618      1576      1572      1614      1620      1578      1591      1615
 -2      1594      1573      1571      1613      1619      1577      1593      1617      1596      1575
 -1        74    4    0METAL
 -2      1576      1618      1624      1582      1578      1620      1626      1584      1594      1621
 -2      1597      1579      1577      1619      1625      1583      1596      1623      1599      1581
 -1        81    4    0METAL
 -2      1600      1642      1648      1606      1602      1644      1650      1608      1627      1645
 -2      1630      1603      1601      1643      1649      1607      1629      1647      1632      1605
 -1        82    4    0METAL
 -2      1606      1648      1654      1612      1608      1650      1656      1614      1630      1651
 -2      1633      1609      1607      1649      1655      1613      1632      1653      1635      1611
 -1        83    4    0METAL
 -2      1612      1654      1660      1618      1614      1656      1662      1620      1633      1657
 -2      1636      1615      1613      1655      1661      1619      1635      1659      1638      1617
 -1        84    4    0METAL
 -2      1618      1660      1666      1624      1620      1662      1668      1626      1636      1663
 -2      1639      1621      1619      1661      1667      1625      1638      1665      1641      1623
 -1        91    4    0METAL
 -2      1642      1684      1690      1648      1644      1686      1692      1650      1669      1687
 -2      1672      1645      1643      1685      1691      1649      1671      1689      1674      1647
 -1        92    4    0METAL
 -2      1648      1690      1696      1654      1650      1692      1698      1656      1672      1693
 -2      1675      1651      1649      1691      1697      1655      1674      1695      1677      1653
 -1        93    4    0METAL
 -2      1654      1696      1702      1660      1656      1698      1704      1662      1675      1699
 -2      1678      1657      1655      1697      1703      1661      1677      1701      1680      1659
 -1        94    4    0METAL
 -2      1660      1702      1708      1666      1662      1704      1710      1668      1678      1705
 -2      1681      1663      1661      1703      1709      1667      1680      1707      1683      1665
 -1       101    4    0METAL
 -2      1684      1726      1732      1690      1686      1728      1734      1692      1711      1729
 -2      1714      1687      1685      1727      1733      1691      1713      1731      1716      1689
 -1       102    4    0METAL
 -2      1690      1732      1738      1696      1692      1734      1740      1698      1714      1735
 -2      1717      1693      1691      1733      1739      1697      1716      1737      1719      1695
 -1       103    4    0METAL
 -2      1696      1738      1744      1702      1698      1740      1746      1704      1717      1741
 -2      1720      1699      1697      1739      1745      1703      1719      1743      1722      1701
 -1       104    4    0METAL
 -2      1702      1744      1750      1708      1704      1746      1752      1710      1720      1747
 -2      1723      1705      1703      1745      1751      1709      1722      1749      1725      1707
 -1       111    4    0METAL
 -2      1726      1768      1774      1732      1728      1770      1776      1734      1753      1771
 -2      1756      1729      1727      1769      1775      1733      1755      1773      1758      1731
 -1       112    4    0METAL
 -2      1732      1774      1780      1738      1734      1776      1782      1740      1756      1777
 -2      1759      1735      1733      1775      1781      1739      1758      1779      1761      1737
 -1       113    4    0METAL
 -2      1738      1780      1786      1744      1740      1782      1788      1746      1759      1783
 -2      1762      1741      1739      1781      1787      1745      1761      1785      1764      1743
 -1       114    4    0METAL
 -2      1744      1786      1792      1750      1746      1788      1794      1752      1762      1789
 -2      1765      1747      1745      1787      1793      1751      1764      1791      1767      1749
 -3
    1PSTEP                         1           1           1          
  100CL  101 1.000000000         419                     0    1           1
 -4  DISP        4    1
 -5  D1          1    2    1    0
 -5  D2          1    2    2    0
 -5  D3          1    2    3    0
 -5  ALL         1    2    0    0    1ALL
 -1      1219 0.00000E+00 0.00000E+00-1.05968E-09
 -1      1220 0.00000E+00 0.00000E+00 0.00000E+00
 -1      1221 0.00000E+00 0.00000E+00 1.05968E-09
 -1      1227 0.00000E+00 0.00000E+00-1.17734E-09
 -1      1229 0.00000E+00 0.00000E+00 1.17734E-09
 -1      1235 0.00000E+00 0.00000E+00-1.28094E-09
 -1      1236 0.00000E+00 0.00000E+00 0.00000E+00
 -1      1237 0.00000E+00 0.00000E+00 1.28094E-09
 -1      1243 0.00000E+00 0.00000E+00-1.23507E-09
 -1      1245 0.00000E+00 0.00000E+00 1.23507E-09
 -1      1251 0.00000E+00 0.00000E+00-1.28253E-09
 -1      1252 0.00000E+00 0.00000E+00 0.00000E+00
 -1      1253 0.00000E+00 0.00000E+00 1.28253E-09
 -1      1259 0.00000E+00 0.00000E+00-1.23547E-09
 -1      1261 0.00000E+00 0.00000E+00 1.23547E-09
 -1      1267 0.00000E+00 0.00000E+00-1.29473E-09
 -1      1268 0.00000E+00 0.00000E+00 0.00000E+00
 -1      1269 0.00000E+00 0.00000E+00 1.29473E-09
 -1      1275 0.00000E+00 0.00000E+00-1.20460E-09
 -1      1277 0.00000E+00 0.00000E+00 1.20460E-09
 -1      1283 0.00000E+00 0.00000E+00-9.78615E-10
 -1      1284 0.00000E+00 0.00000E+00 0.00000E+00
 -1      1285 0.00000E+00 0.00000E+00 9.78615E-10
 -1      1291-3.21463E-05-2.70602E-05-1.38794E-04
 -1      1293 3.21405E-05 2.70757E-05-1.38791E-04
 -1      1294-1.29582E-04-1.90987E-05-6.75721E-04
 -1      1296 1.29570E-04 1.91036E-05-6.75718E-04
 -1      1297-2.11053E-04-2.00075E-05-1.12774E-03
 -1      1299 2.11042E-04 2.00069E-05-1.12774E-03
 -1      1300-3.24670E-04-4.72284E-05-1.84614E-03
 -1      1302 3.24659E-04 4.72213E-05-1.84613E-03
 -1      1303-5.96748E-04-8.78633E-05-3.65589E-03
 -1      1305 5.96746E-04 8.78403E-05-3.65588E-03
 -1      1306-1.41026E-04-8.12857E-05-1.25841E-03
 -1      1307-7.53244E-09 1.11526E-08-1.25660E-03
 -1      1308 1.41011E-04 8.13081E-05-1.25841E-03
 -1      1309-2.16376E-04-7.05200E-05-2.20594E-03
 -1      1311 2.16355E-04 7.05334E-05-2.20594E-03
 -1      1312-2.92356E-04-6.66913E-05-3.05481E-03
 -1      1313-1.10500E-08 3.77892E-09-3.05116E-03
 -1      1314 2.92334E-04 6.66988E-05-3.05481E-03
 -1      1315-3.66886E-04-6.90850E-05-3.90105E-03
 -1      1317 3.66864E-04 6.90867E-05-3.90105E-03
 -1      1318-4.53550E-04-8.16456E-05-4.81688E-03
 -1      1319-1.09571E-08-1.97746E-09-4.81136E-03
 -1      1320 4.53528E-04 8.16417E-05-4.81687E-03
 -1      1321-5.47364E-04-1.04284E-04-5.96937E-03
 -1      1323 5.47343E-04 1.04274E-04-5.96937E-03
 -1      1324-6.65778E-04-1.50008E-04-7.54054E-03
 -1      1325-8.54577E-09-9.28021E-09-7.53251E-03
 -1      1326 6.65761E-04 1.49990E-04-7.54054E-03
 -1      1327-7.65829E-04-2.15660E-04-9.87955E-03
 -1      1329 7.65815E-04 2.15634E-04-9.87955E-03
 -1      1330-9.32733E-04-2.49546E-04-1.28147E-02
 -1      1331-3.32680E-09-1.81207E-08-1.28079E-02
 -1      1332 9.32727E-04 2.49510E-04-1.28147E-02
 -1      1333-2.82029E-04-1.45655E-04-4.15476E-03
 -1      1335 2.82002E-04 1.45679E-04-4.15476E-03
 -1      1336-4.69660E-04-1.37102E-04-7.67528E-03
 -1      1338 4.69628E-04 1.37108E-04-7.67528E-03
 -1      1339-6.64081E-04-1.71697E-04-1.14643E-02
 -1      1341 6.64051E-04 1.71687E-04-1.14643E-02
 -1      1342-8.76967E-04-2.75315E-04-1.69365E-02
 -1      1344 8.76943E-04 2.75287E-04-1.69365E-02
 -1      1345-1.12357E-03-4.05525E-04-2.56112E-02
 -1      1347 1.12356E-03 4.05478E-04-2.56112E-02
 -1      1348-4.38040E-04-2.17743E-04-9.06388E-03
 -1      1349-1.93158E-08 1.05212E-08-9.06163E-03
 -1      1350 4.38001E-04 2.17764E-04-9.06388E-03
 -1      1351-5.44836E-04-2.19955E-04-1.18107E-02
 -1      1353 5.44796E-04 2.19967E-04-1.18107E-02
 -1      1354-6.26619E-04-2.17268E-04-1.45514E-02
 -1      1355-2.01831E-08 9.51604E-10-1.45493E-02
 -1      1356 6.26579E-04 2.17270E-04-1.45514E-02
 -1      1357-7.31322E-04-2.41694E-04-1.74156E-02
 -1      1359 7.31283E-04 2.41687E-04-1.74156E-02
 -1      1360-8.08975E-04-2.70014E-04-2.06253E-02
 -1      1361-1.85005E-08-8.29886E-09-2.06232E-02
 -1      1362 8.08938E-04 2.69998E-04-2.06253E-02
 -1      1363-9.16410E-04-3.29314E-04-2.43480E-02
 -1      1365 9.16377E-04 3.29287E-04-2.43480E-02
 -1      1366-9.89236E-04-3.91183E-04-2.88820E-02
 -1      1367-1.49832E-08-1.81139E-08-2.88806E-02
 -1      1368 9.89206E-04 3.91147E-04-2.88820E-02
 -1      1369-1.10002E-03-4.74880E-04-3.42926E-02
 -1      1371 1.10000E-03 4.74834E-04-3.42926E-02
 -1      1372-1.17103E-03-5.53907E-04-4.07335E-02
 -1      1373-1.10648E-08-2.80036E-08-4.07336E-02
 -1      1374 1.17101E-03 5.53851E-04-4.07335E-02
 -1      1375-5.87666E-04-2.89599E-04-1.60701E-02
 -1      1377 5.87617E-04 2.89616E-04-1.60701E-02
 -1      1378-7.49467E-04-2.97152E-04-2.34092E-02
 -1      1380 7.49419E-04 2.97148E-04-2.34092E-02
 -1      1381-9.02943E-04-3.61829E-04-3.16028E-02
 -1      1383 9.02900E-04 3.61805E-04-3.16028E-02
 -1      1384-1.03478E-03-4.91390E-04-4.22723E-02
 -1      1386 1.03474E-03 4.91346E-04-4.22723E-02
 -1      1387-1.14085E-03-6.51595E-04-5.66130E-02
 -1      1389 1.14082E-03 6.51531E-04-5.66130E-02
 -1      1390-7.07346E-04-3.49000E-04-2.48481E-02
 -1      1391-2.90474E-08 5.03460E-09-2.48467E-02
 -1      1392 7.07288E-04 3.49010E-04-2.48481E-02
 -1      1393-7.77739E-04-3.55527E-04-2.92536E-02
 -1      1395 7.77682E-04 3.55527E-04-2.92536E-02
 -1      1396-8.31212E-04-3.65353E-04-3.37613E-02
 -1      1397-2.74847E-08-5.26134E-09-3.37603E-02
 -1      1398 8.31157E-04 3.65343E-04-3.37613E-02
 -1      1399-8.96930E-04-3.98909E-04-3.85313E-02
 -1      1401 8.96877E-04 3.98888E-04-3.85313E-02
 -1      1402-9.40137E-04-4.38312E-04-4.37638E-02
 -1      1403-2.47386E-08-1.56805E-08-4.37631E-02
 -1      1404 9.40087E-04 4.38281E-04-4.37638E-02
 -1      1405-9.92281E-04-5.02137E-04-4.96393E-02
 -1      1407 9.92235E-04 5.02095E-04-4.96393E-02
 -1      1408-1.01668E-03-5.62044E-04-5.63098E-02
 -1      1409-2.14186E-08-2.58853E-08-5.63097E-02
 -1      1410 1.01663E-03 5.61992E-04-5.63098E-02
 -1      1411-1.05500E-03-6.44822E-04-6.38611E-02
 -1      1413 1.05496E-03 6.44761E-04-6.38611E-02
 -1      1414-1.05999E-03-7.20515E-04-7.24047E-02
 -1      1415-1.86559E-08-3.58884E-08-7.24053E-02
 -1      1416 1.05996E-03 7.20443E-04-7.24047E-02
 -1      1417-7.88377E-04-3.92260E-04-3.49833E-02
 -1      1419 7.88310E-04 3.92262E-04-3.49833E-02
 -1      1420-8.64492E-04-4.16619E-04-4.50653E-02
 -1      1422 8.64430E-04 4.16601E-04-4.50653E-02
 -1      1423-9.22397E-04-4.91967E-04-5.63928E-02
 -1      1425 9.22341E-04 4.91928E-04-5.63928E-02
 -1      1426-9.46585E-04-6.11474E-04-7.02162E-02
 -1      1428 9.46535E-04 6.11415E-04-7.02162E-02
 -1      1429-9.33841E-04-7.60740E-04-8.74174E-02
 -1      1431 9.33796E-04 7.60661E-04-8.74174E-02
 -1      1432-8.25904E-04-4.15860E-04-4.59339E-02
 -1      1433-3.68695E-08-2.31071E-09-4.59337E-02
 -1      1434 8.25830E-04 4.15856E-04-4.59339E-02
 -1      1435-8.45836E-04-4.30224E-04-5.12238E-02
 -1      1437 8.45765E-04 4.30209E-04-5.12238E-02
 -1      1438-8.49776E-04-4.47719E-04-5.67147E-02
 -1      1439-3.40907E-08-1.26137E-08-5.67152E-02
 -1      1440 8.49708E-04 4.47694E-04-5.67147E-02
 -1      1441-8.64473E-04-4.85024E-04-6.25405E-02
 -1      1443 8.64408E-04 4.84989E-04-6.25405E-02
 -1      1444-8.56886E-04-5.24381E-04-6.88484E-02
 -1      1445-3.12537E-08-2.30361E-08-6.88494E-02
 -1      1446 8.56824E-04 5.24335E-04-6.88484E-02
 -1      1447-8.58193E-04-5.81443E-04-7.57613E-02
 -1      1449 8.58133E-04 5.81386E-04-7.57613E-02
 -1      1450-8.31758E-04-6.35201E-04-8.33766E-02
 -1      1451-2.86061E-08-3.32819E-08-8.33782E-02
 -1      1452 8.31701E-04 6.35135E-04-8.33766E-02
 -1      1453-8.17583E-04-7.08986E-04-9.17833E-02
 -1      1455 8.17528E-04 7.08909E-04-9.17833E-02
 -1      1456-7.68710E-04-7.78481E-04-1.01086E-01
 -1      1457-2.64042E-08-4.33638E-08-1.01089E-01
 -1      1458 7.68657E-04 7.78394E-04-1.01086E-01
 -1      1459-8.17708E-04-4.21457E-04-5.71143E-02
 -1      1461 8.17627E-04 4.21445E-04-5.71143E-02
 -1      1462-7.91983E-04-4.59537E-04-6.80982E-02
 -1      1464 7.91908E-04 4.59505E-04-6.80982E-02
 -1      1465-7.50776E-04-5.34622E-04-8.05177E-02
 -1      1467 7.50707E-04 5.34569E-04-8.05177E-02
 -1      1468-6.81491E-04-6.39519E-04-9.52169E-02
 -1      1470 6.81426E-04 6.39445E-04-9.52169E-02
 -1      1471-5.75740E-04-7.72067E-04-1.12895E-01
 -1      1473 5.75679E-04 7.71973E-04-1.12895E-01
 -1      1474-7.65276E-04-4.07471E-04-6.79400E-02
 -1      1475-4.36090E-08-9.70092E-09-6.79410E-02
 -1      1476 7.65188E-04 4.07452E-04-6.79400E-02
 -1      1477-7.33697E-04-4.28120E-04-7.31645E-02
 -1      1479 7.33613E-04 4.28091E-04-7.31645E-02
 -1      1480-6.93236E-04-4.52033E-04-7.86675E-02
 -1      1481-4.06079E-08-1.98835E-08-7.86691E-02
 -1      1482 6.93155E-04 4.51993E-04-7.86675E-02
 -1      1483-6.58894E-04-4.88980E-04-8.45475E-02
 -1      1485 6.58816E-04 4.88930E-04-8.45475E-02
 -1      1486-6.09785E-04-5.26584E-04-9.08930E-02
 -1      1487-3.80879E-08-3.01924E-08-9.08951E-02
 -1      1488 6.09709E-04 5.26524E-04-9.08930E-02
 -1      1489-5.66535E-04-5.76358E-04-9.77864E-02
 -1      1491 5.66461E-04 5.76288E-04-9.77864E-02
 -1      1492-5.02713E-04-6.24043E-04-1.05296E-01
 -1      1493-3.60512E-08-4.04369E-08-1.05298E-01
 -1      1494 5.02641E-04 6.23962E-04-1.05296E-01
 -1      1495-4.46314E-04-6.87962E-04-1.13498E-01
 -1      1497 4.46244E-04 6.87871E-04-1.13498E-01
 -1      1498-3.61444E-04-7.48385E-04-1.22480E-01
 -1      1499-3.44844E-08-5.05537E-08-1.22483E-01
 -1      1500 3.61375E-04 7.48284E-04-1.22480E-01
 -1      1501-6.71310E-04-3.78182E-04-7.78514E-02
 -1      1503 6.71216E-04 3.78156E-04-7.78514E-02
 -1      1504-5.58779E-04-4.28357E-04-8.79051E-02
 -1      1506 5.58691E-04 4.28310E-04-8.79051E-02
 -1      1507-4.39634E-04-5.01450E-04-9.95254E-02
 -1      1509 4.39551E-04 5.01383E-04-9.95254E-02
 -1      1510-3.01699E-04-5.94117E-04-1.13235E-01
 -1      1512 3.01619E-04 5.94029E-04-1.13235E-01
 -1      1513-1.32453E-04-7.07376E-04-1.29532E-01
 -1      1515 1.32376E-04 7.07268E-04-1.29532E-01
 -1      1516-5.40073E-04-3.33199E-04-8.63531E-02
 -1      1517-5.00007E-08-1.66240E-08-8.63551E-02
 -1      1518 5.39973E-04 3.33166E-04-8.63531E-02
 -1      1519-4.67691E-04-3.60415E-04-9.06912E-02
 -1      1521 4.67594E-04 3.60372E-04-9.06912E-02
 -1      1522-3.93933E-04-3.90531E-04-9.53862E-02
 -1      1523-4.72715E-08-2.67359E-08-9.53886E-02
 -1      1524 3.93839E-04 3.90478E-04-9.53862E-02
 -1      1525-3.23838E-04-4.27116E-04-1.00495E-01
 -1      1527 3.23745E-04 4.27053E-04-1.00495E-01
 -1      1528-2.46228E-04-4.64259E-04-1.06064E-01
 -1      1529-4.52478E-08-3.69828E-08-1.06067E-01
 -1      1530 2.46138E-04 4.64185E-04-1.06064E-01
 -1      1531-1.72417E-04-5.08364E-04-1.12140E-01
 -1      1533 1.72328E-04 5.08280E-04-1.12140E-01
 -1      1534-8.46730E-05-5.51078E-04-1.18765E-01
 -1      1535-4.38616E-08-4.72344E-08-1.18768E-01
 -1      1536 8.45853E-05 5.50983E-04-1.18765E-01
 -1      1537-7.86005E-07-6.04502E-04-1.25987E-01
 -1      1539 6.99232E-07 6.04398E-04-1.25987E-01
 -1      1540 1.05059E-04-6.54783E-04-1.33861E-01
 -1      1541-4.30346E-08-5.73759E-08-1.33864E-01
 -1      1542-1.05145E-04 6.54668E-04-1.33861E-01
 -1      1543-3.76828E-04-2.79051E-04-9.29979E-02
 -1      1545 3.76721E-04 2.79012E-04-9.29979E-02
 -1      1546-2.04310E-04-3.42474E-04-1.00739E-01
 -1      1548 2.04208E-04 3.42415E-04-1.00739E-01
 -1      1549-3.58127E-05-4.16201E-04-1.10219E-01
 -1      1551 3.57148E-05 4.16121E-04-1.10219E-01
 -1      1552 1.42097E-04-4.98939E-04-1.21671E-01
 -1      1554-1.42193E-04 4.98838E-04-1.21671E-01
 -1      1555 3.44678E-04-5.91569E-04-1.35327E-01
 -1      1557-3.44773E-04 5.91448E-04-1.35327E-01
 -1      1558-1.86628E-04-2.14905E-04-9.74310E-02
 -1      1559-5.63660E-08-2.29458E-08-9.74337E-02
 -1      1560 1.86516E-04 2.14859E-04-9.74310E-02
 -1      1561-8.76615E-05-2.49498E-04-1.00338E-01
 -1      1563 8.75513E-05 2.49442E-04-1.00338E-01
 -1      1564 4.22850E-06-2.86933E-04-1.03692E-01
 -1      1565-5.41282E-08-3.30283E-08-1.03695E-01
 -1      1566-4.33675E-06 2.86867E-04-1.03692E-01
 -1      1567 9.52543E-05-3.24531E-04-1.07511E-01
 -1      1569-9.53609E-05 3.24454E-04-1.07511E-01
 -1      1570 1.85917E-04-3.62926E-04-1.11805E-01
 -1      1571-5.27137E-08-4.32599E-08-1.11808E-01
 -1      1572-1.86022E-04 3.62839E-04-1.11805E-01
 -1      1573 2.75901E-04-4.02377E-04-1.16582E-01
 -1      1575-2.76006E-04 4.02280E-04-1.16582E-01
 -1      1576 3.72499E-04-4.40435E-04-1.21850E-01
 -1      1577-5.20735E-08-5.35587E-08-1.21854E-01
 -1      1578-3.72604E-04 4.40328E-04-1.21850E-01
 -1      1579 4.69220E-04-4.82973E-04-1.27619E-01
 -1      1581-4.69324E-04 4.82856E-04-1.27619E-01
 -1      1582 5.80442E-04-5.22914E-04-1.33907E-01
 -1      1583-5.21690E-08-6.37548E-08-1.33910E-01
 -1      1584-5.80546E-04 5.22786E-04-1.33907E-01
 -1      1585 2.46282E-05-1.49071E-04-9.93547E-02
 -1      1587-2.47473E-05 1.49019E-04-9.93547E-02
 -1      1588 2.25863E-04-2.27939E-04-1.04035E-01
 -1      1590-2.25979E-04 2.27867E-04-1.04035E-01
 -1      1591 4.12832E-04-3.05082E-04-1.10694E-01
 -1      1593-4.12946E-04 3.04989E-04-1.10694E-01
 -1      1594 6.00570E-04-3.78476E-04-1.19253E-01
 -1      1596-6.00683E-04 3.78363E-04-1.19253E-01
 -1      1597 8.06800E-04-4.49482E-04-1.29623E-01
 -1      1599-8.06914E-04 4.49349E-04-1.29623E-01
 -1      1600 2.50861E-04-7.93140E-05-9.85761E-02
 -1      1601-6.28445E-08-2.85936E-08-9.85791E-02
 -1      1602-2.50987E-04 7.92568E-05-9.85761E-02
 -1      1603 3.60668E-04-1.22252E-04-9.98414E-02
 -1      1605-3.60792E-04 1.22185E-04-9.98414E-02
 -1      1606 4.54870E-04-1.68522E-04-1.01661E-01
 -1      1607-6.12332E-08-3.86477E-08-1.01664E-01
 -1      1608-4.54992E-04 1.68445E-04-1.01661E-01
 -1      1609 5.50804E-04-2.08497E-04-1.04014E-01
 -1      1611-5.50925E-04 2.08410E-04-1.04014E-01
 -1      1612 6.38587E-04-2.48981E-04-1.06869E-01
 -1      1613-6.04849E-08-4.88836E-08-1.06873E-01
 -1      1614-6.38708E-04 2.48883E-04-1.06869E-01
 -1      1615 7.29746E-04-2.83443E-04-1.10187E-01
 -1      1617-7.29867E-04 2.83335E-04-1.10187E-01
 -1      1618 8.20580E-04-3.16561E-04-1.13936E-01
 -1      1619-6.07372E-08-5.92965E-08-1.13939E-01
 -1      1620-8.20702E-04 3.16442E-04-1.13936E-01
 -1      1621 9.15750E-04-3.47642E-04-1.18082E-01
 -1      1623-9.15873E-04 3.47513E-04-1.18082E-01
 -1      1624 1.01804E-03-3.76498E-04-1.22606E-01
 -1      1625-6.21172E-08-6.96121E-08-1.22609E-01
 -1      1626-1.01816E-03 3.76359E-04-1.22606E-01
 -1      1627 4.86605E-04-1.55601E-05-9.49620E-02
 -1      1629-4.86737E-04 1.54979E-05-9.49620E-02
 -1      1630 6.84229E-04-1.12854E-04-9.65260E-02
 -1      1632-6.84359E-04 1.12772E-04-9.65260E-02
 -1      1633 8.57733E-04-1.93681E-04-1.00365E-01
 -1      1635-8.57862E-04 1.93578E-04-1.00365E-01
 -1      1636 1.02645E-03-2.56419E-04-1.06007E-01
 -1      1638-1.02658E-03 2.56295E-04-1.06007E-01
 -1      1639 1.20947E-03-3.04244E-04-1.13027E-01
 -1      1641-1.20960E-03 3.04100E-04-1.13027E-01
 -1      1642 7.24450E-04 4.56620E-05-8.84874E-02
 -1      1643-6.95485E-08-3.34550E-08-8.84903E-02
 -1      1644-7.24589E-04-4.57289E-05-8.84874E-02
 -1      1645 8.28887E-04-6.92435E-06-8.82523E-02
 -1      1647-8.29025E-04 6.84743E-06-8.82523E-02
 -1      1648 9.08843E-04-6.36914E-05-8.86993E-02
 -1      1649-6.86544E-08-4.34424E-08-8.87021E-02
 -1      1650-9.08980E-04 6.36045E-05-8.86992E-02
 -1      1651 9.93527E-04-1.06117E-04-8.97558E-02
 -1      1653-9.93664E-04 1.06020E-04-8.97558E-02
 -1      1654 1.06287E-03-1.46484E-04-9.13319E-02
 -1      1655-6.85262E-08-5.36879E-08-9.13347E-02
 -1      1656-1.06301E-03 1.46377E-04-9.13319E-02
 -1      1657 1.14144E-03-1.74665E-04-9.33256E-02
 -1      1659-1.14158E-03 1.74548E-04-9.33256E-02
 -1      1660 1.21312E-03-2.01725E-04-9.56735E-02
 -1      1661-6.99836E-08-6.42310E-08-9.56760E-02
 -1      1662-1.21326E-03 2.01597E-04-9.56735E-02
 -1      1663 1.29522E-03-2.19485E-04-9.82959E-02
 -1      1665-1.29536E-03 2.19346E-04-9.82959E-02
 -1      1666 1.37691E-03-2.37096E-04-1.01143E-01
 -1      1667-7.34715E-08-7.46445E-08-1.01145E-01
 -1      1668-1.37705E-03 2.36947E-04-1.01143E-01
 -1      1669 9.60205E-04 9.29773E-05-7.91921E-02
 -1      1671-9.60351E-04-9.30486E-05-7.91921E-02
 -1      1672 1.11991E-03-2.62614E-05-7.83084E-02
 -1      1674-1.12006E-03 2.61704E-05-7.83084E-02
 -1      1675 1.24921E-03-1.04296E-04-7.99612E-02
 -1      1677-1.24936E-03 1.04184E-04-7.99612E-02
 -1      1678 1.37641E-03-1.51184E-04-8.31779E-02
 -1      1680-1.37656E-03 1.51051E-04-8.31779E-02
 -1      1681 1.51648E-03-1.74703E-04-8.72495E-02
 -1      1683-1.51664E-03 1.74550E-04-8.72495E-02
 -1      1684 1.18506E-03 1.29403E-04-6.72286E-02
 -1      1685-7.67207E-08-3.76235E-08-6.72311E-02
 -1      1686-1.18521E-03-1.29479E-04-6.72286E-02
 -1      1687 1.26400E-03 6.59457E-05-6.60171E-02
 -1      1689-1.26416E-03-6.60306E-05-6.60171E-02
 -1      1690 1.30993E-03-1.22427E-06-6.56324E-02
 -1      1691-7.62162E-08-4.74490E-08-6.56348E-02
 -1      1692-1.31008E-03 1.12938E-06-6.56324E-02
 -1      1693 1.36908E-03-3.82944E-05-6.58627E-02
 -1      1695-1.36923E-03 3.81896E-05-6.58627E-02
 -1      1696 1.41019E-03-7.35130E-05-6.65567E-02
 -1      1697-7.67754E-08-5.75136E-08-6.65588E-02
 -1      1698-1.41035E-03 7.33980E-05-6.65567E-02
 -1      1699 1.46663E-03-9.29821E-05-6.75824E-02
 -1      1701-1.46678E-03 9.28569E-05-6.75824E-02
 -1      1702 1.51167E-03-1.09756E-04-6.88402E-02
 -1      1703-8.02916E-08-6.75987E-08-6.88420E-02
 -1      1704-1.51183E-03 1.09621E-04-6.88402E-02
 -1      1705 1.57263E-03-1.14572E-04-7.02296E-02
 -1      1707-1.57279E-03 1.14427E-04-7.02295E-02
 -1      1708 1.62683E-03-1.20990E-04-7.16898E-02
 -1      1709-8.70989E-08-7.77417E-08-7.16912E-02
 -1      1710-1.62701E-03 1.20834E-04-7.16898E-02
 -1      1711 1.39156E-03 1.41528E-04-5.28282E-02
 -1      1713-1.39172E-03-1.41607E-04-5.28282E-02
 -1      1714 1.47156E-03 1.14151E-05-5.09673E-02
 -1      1716-1.47172E-03-1.15135E-05-5.09673E-02
 -1      1717 1.53879E-03-5.10605E-05-5.14541E-02
 -1      1719-1.53895E-03 5.09428E-05-5.14541E-02
 -1      1720 1.61598E-03-7.40289E-05-5.30011E-02
 -1      1722-1.61615E-03 7.38925E-05-5.30011E-02
 -1      1723 1.70587E-03-7.38947E-05-5.48200E-02
 -1      1725-1.70606E-03 7.37388E-05-5.48200E-02
 -1      1726 1.57078E-03 1.37757E-04-3.64219E-02
 -1      1727-8.45418E-08-4.17241E-08-3.64235E-02
 -1      1728-1.57095E-03-1.37840E-04-3.64219E-02
 -1      1729 1.59910E-03 6.26661E-05-3.52135E-02
 -1      1731-1.59927E-03-6.27595E-05-3.52135E-02
 -1      1732 1.59070E-03 1.02578E-05-3.48108E-02
 -1      1733-8.37390E-08-5.07962E-08-3.48122E-02
 -1      1734-1.59087E-03-1.03594E-05-3.48108E-02
 -1      1735 1.62109E-03-1.04522E-05-3.47824E-02
 -1      1737-1.62126E-03 1.03414E-05-3.47824E-02
 -1      1738 1.63256E-03-3.79575E-05-3.50652E-02
 -1      1739-8.61783E-08-5.96209E-08-3.50662E-02
 -1      1740-1.63273E-03 3.78383E-05-3.50652E-02
 -1      1741 1.67030E-03-3.80144E-05-3.55112E-02
 -1      1743-1.67047E-03 3.78874E-05-3.55112E-02
 -1      1744 1.69076E-03-4.79448E-05-3.60155E-02
 -1      1745-9.24641E-08-6.75589E-08-3.60165E-02
 -1      1746-1.69095E-03 4.78097E-05-3.60155E-02
 -1      1747 1.73318E-03-3.92674E-05-3.65431E-02
 -1      1749-1.73338E-03 3.91235E-05-3.65431E-02
 -1      1750 1.75458E-03-3.75536E-05-3.70009E-02
 -1      1751-1.03371E-07-7.67292E-08-3.70015E-02
 -1      1752-1.75478E-03 3.74001E-05-3.70009E-02
 -1      1753 1.70842E-03 6.73882E-05-1.84434E-02
 -1      1755-1.70860E-03-6.74784E-05-1.84434E-02
 -1      1756 1.66439E-03 4.57130E-06-1.76240E-02
 -1      1758-1.66456E-03-4.67811E-06-1.76240E-02
 -1      1759 1.69066E-03-1.81967E-05-1.77979E-02
 -1      1761-1.69084E-03 1.80788E-05-1.77979E-02
 -1      1762 1.73863E-03-2.10639E-05-1.82544E-02
 -1      1764-1.73882E-03 2.09329E-05-1.82544E-02
 -1      1765 1.78130E-03-1.48164E-05-1.86456E-02
 -1      1767-1.78153E-03 1.46685E-05-1.86456E-02
 -1      1768 1.75444E-03 5.96453E-06-8.91504E-10
 -1      1769-9.20629E-08-5.29722E-08-5.00450E-07
 -1      1770-1.75463E-03-6.07068E-06 8.91504E-10
 -1      1771 1.71236E-03 1.95183E-06-1.25450E-09
 -1      1773-1.71254E-03-2.05721E-06 1.25450E-09
 -1      1774 1.69024E-03 1.62232E-06-1.14208E-09
 -1      1775-9.28121E-08-5.35787E-08 8.18115E-08
 -1      1776-1.69043E-03-1.72944E-06 1.14208E-09
 -1      1777 1.70692E-03-2.16701E-06-1.31219E-09
 -1      1779-1.70711E-03 2.05695E-06 1.31219E-09
 -1      1780 1.71616E-03-1.77024E-06-1.17168E-09
 -1      1781-9.83693E-08-5.67655E-08 8.49193E-09
 -1      1782-1.71636E-03 1.65672E-06 1.17168E-09
 -1      1783 1.74647E-03-1.54486E-06-1.34068E-09
 -1      1785-1.74668E-03 1.42706E-06 1.34068E-09
 -1      1786 1.76061E-03-3.99030E-06-1.21068E-09
 -1      1787-1.06779E-07-6.16320E-08-2.06906E-08
 -1      1788-1.76082E-03 3.86707E-06 1.21068E-09
 -1      1789 1.78532E-03 1.98915E-07-1.37205E-09
 -1      1791-1.78555E-03-3.29093E-07 1.37205E-09
 -1      1792 1.79130E-03-4.46126E-06-1.24827E-09
 -1      1793-1.20662E-07-6.96318E-08 7.47601E-08
 -1      1794-1.79154E-03 4.32201E-06 1.24827E-09
 -3
    1PSTEP                         2           1           1          
  100CL  101 1.000000000         419                     0    1           1
 -4  STRESS      6    1
 -5  SXX         1    4    1    1
 -5  SYY         1    4    2    2
 -5  SZZ         1    4    3    3
 -5  SXY         1    4    1    2
 -5  SYZ         1    4    2    3
 -5  SZX         1    4    3    1
 -1      1219 9.59342E+06 4.26023E+06 4.16440E+06-5.11627E+06 1.67375E+06 3.16950E+06
 -1      1220 2.46385E+03 3.40589E+03 9.97704E+03 2.64350E+03 1.67378E+06 3.16954E+06
 -1      1221-9.58849E+06-4.25342E+06-4.14445E+06 5.12156E+06 1.67380E+06 3.16959E+06
 -1      1227-4.81740E+07-2.04970E+07-2.05922E+07-3.92195E+06 1.03349E+06-1.35589E+05
 -1      1229 4.81755E+07 2.05028E+07 2.06123E+07 3.92531E+06 1.03353E+06-1.35555E+05
 -1      1235-1.06295E+08-4.47571E+07-4.53060E+07-1.98044E+06 2.99875E+06-1.06142E+06
 -1      1236-9.04949E+02 2.57992E+03 9.99632E+03 7.64389E+02 2.99875E+06-1.06142E+06
 -1      1237 1.06293E+08 4.47623E+07 4.53260E+07 1.98197E+06 2.99875E+06-1.06142E+06
 -1      1243-1.46555E+08-6.13624E+07-6.23655E+07-4.49656E+05-7.11264E+05-9.39628E+05
 -1      1245 1.46553E+08 6.13680E+07 6.23854E+07 4.50566E+05-7.11263E+05-9.39619E+05
 -1      1251-1.84916E+08-7.77600E+07-7.87932E+07 3.68430E+05 1.22006E+06 1.00287E+05
 -1      1252-6.63541E+02 2.86771E+03 1.00362E+04 8.58094E+01 1.22006E+06 1.00294E+05
 -1      1253 1.84915E+08 7.77658E+07 7.88133E+07-3.68258E+05 1.22006E+06 1.00300E+05
 -1      1259-2.42068E+08-1.02210E+08-1.03274E+08-2.40235E+06 2.77454E+06 3.47730E+05
 -1      1261 2.42066E+08 1.02216E+08 1.03294E+08 2.40171E+06 2.77454E+06 3.47728E+05
 -1      1267-2.87043E+08-1.21247E+08-1.22477E+08-1.15638E+07 3.15413E+06-2.68836E+06
 -1      1268-1.08999E+03 2.36306E+03 9.99843E+03-5.40640E+02 3.15414E+06-2.68838E+06
 -1      1269 2.87041E+08 1.21251E+08 1.22497E+08 1.15627E+07 3.15416E+06-2.68840E+06
 -1      1275-4.72341E+08-2.00421E+08-2.01819E+08-2.22817E+07 1.44018E+06-5.49033E+06
 -1      1277 4.72343E+08 2.00427E+08 2.01839E+08 2.22778E+07 1.44012E+06-5.49023E+06
 -1      1283-6.71359E+08-2.85715E+08-2.87114E+08-2.66434E+07-7.34575E+06-8.30615E+06
 -1      1284 3.00477E+03 3.19277E+03 9.96903E+03-3.52546E+03-7.34581E+06-8.30602E+06
 -1      1285 6.71365E+08 2.85721E+08 2.87134E+08 2.66364E+07-7.34587E+06-8.30589E+06
 -1      1291-3.70057E+07-6.54720E+06 5.04704E+05-2.22442E+07 6.41421E+05 9.71445E+05
 -1      1293 3.70083E+07 6.55021E+06-4.84680E+05 2.22469E+07 6.41439E+05 9.71479E+05
 -1      1294-1.05571E+08-3.49347E+07-1.48139E+07-1.83238E+07 2.21157E+06-5.94578E+05
 -1      1296 1.05570E+08 3.49386E+07 1.48339E+07 1.83251E+07 2.21157E+06-5.94576E+05
 -1      1297-1.73699E+08-6.40449E+07-2.99233E+07-2.02556E+07 1.81000E+06-9.05413E+05
 -1      1299 1.73698E+08 6.40490E+07 2.99432E+07 2.02555E+07 1.81000E+06-9.05410E+05
 -1      1300-2.57263E+08-1.11516E+08-5.04215E+07-3.37115E+07 1.14151E+06-2.90732E+06
 -1      1302 2.57263E+08 1.11519E+08 5.04415E+07 3.37101E+07 1.14152E+06-2.90733E+06
 -1      1303-3.45626E+08-1.35231E+08-9.32295E+07-6.90016E+07-5.28081E+06-3.75905E+06
 -1      1305 3.45628E+08 1.35233E+08 9.32496E+07 6.89989E+07-5.28085E+06-3.75895E+06
 -1      1306-7.93628E+07-1.54977E+07-1.32536E+06-3.86455E+07-2.67431E+05-6.42895E+05
 -1      1307 1.99152E+02-2.73416E+02 1.00056E+04 1.24615E+02-2.67436E+05-6.42906E+05
 -1      1308 7.93632E+07 1.54971E+07 1.34537E+06 3.86457E+07-2.67442E+05-6.42917E+05
 -1      1309-9.43904E+07-2.19734E+07 5.99022E+06-3.78018E+07 6.29815E+05 2.78690E+05
 -1      1311 9.43903E+07 2.19746E+07-5.97023E+06 3.78024E+07 6.29802E+05 2.78681E+05
 -1      1312-1.11422E+08-2.83124E+07 1.27459E+07-3.58476E+07 5.08431E+04-3.14882E+05
 -1      1313-1.88601E+02 1.29070E+03 9.99928E+03 4.69944E+02 5.08435E+04-3.14882E+05
 -1      1314 1.11421E+08 2.83150E+07-1.27259E+07 3.58485E+07 5.08439E+04-3.14883E+05
 -1      1315-1.35820E+08-3.98411E+07 1.60298E+07-3.90219E+07 1.27641E+06-5.57757E+05
 -1      1317 1.35820E+08 3.98435E+07-1.60098E+07 3.90221E+07 1.27641E+06-5.57761E+05
 -1      1318-1.60200E+08-5.06222E+07 1.95438E+07-4.23900E+07 6.41969E+05-1.56267E+06
 -1      1319-2.28094E+01 1.26971E+03 9.99267E+03-2.46190E+02 6.41968E+05-1.56267E+06
 -1      1320 1.60200E+08 5.06247E+07-1.95238E+07 4.23895E+07 6.41967E+05-1.56268E+06
 -1      1321-1.74125E+08-6.38748E+07 3.02023E+07-5.04600E+07 1.87313E+05-2.81082E+06
 -1      1323 1.74126E+08 6.38766E+07-3.01823E+07 5.04592E+07 1.87316E+05-2.81082E+06
 -1      1324-1.99756E+08-9.12226E+07 3.31206E+07-5.32809E+07 2.83516E+05-2.74540E+06
 -1      1325 6.23021E+02 6.48613E+02 1.00006E+04-6.26691E+02 2.83512E+05-2.74540E+06
 -1      1326 1.99758E+08 9.12239E+07-3.31006E+07 5.32797E+07 2.83508E+05-2.74539E+06
 -1      1327-1.42223E+08-5.59929E+07 5.17655E+07-7.35421E+07-1.34803E+06-2.29452E+06
 -1      1329 1.42223E+08 5.59927E+07-5.17455E+07 7.35418E+07-1.34802E+06-2.29456E+06
 -1      1330-7.10000E+07-7.55227E+06 7.84806E+07-9.99690E+07-1.94211E+05-8.80017E+05
 -1      1331-8.70713E+02-9.19427E+02 1.00046E+04 4.18418E+02-1.94194E+05-8.80052E+05
 -1      1332 7.09982E+07 7.55043E+06-7.84606E+07 9.99699E+07-1.94177E+05-8.80087E+05
 -1      1333-8.07258E+07-2.11890E+07-1.55868E+05-4.39058E+07 3.86922E+03 1.71192E+04
 -1      1335 8.07255E+07 2.11887E+07 1.75828E+05 4.39058E+07 3.86557E+03 1.71083E+04
 -1      1336-1.01783E+08-3.17647E+07 2.95456E+06-4.15170E+07-1.39569E+05-3.12750E+05
 -1      1338 1.01783E+08 3.17662E+07-2.93456E+06 4.15174E+07-1.39568E+05-3.12750E+05
 -1      1339-1.12832E+08-5.00250E+07 7.79156E+06-4.50511E+07-3.52726E+05-9.82362E+05
 -1      1341 1.12832E+08 5.00264E+07-7.77151E+06 4.50508E+07-3.52725E+05-9.82363E+05
 -1      1342-1.07369E+08-7.12416E+07 1.65339E+07-4.71005E+07 6.86577E+05-1.78739E+06
 -1      1344 1.07370E+08 7.12422E+07-1.65139E+07 4.71002E+07 6.86573E+05-1.78739E+06
 -1      1345-5.79279E+07-3.92609E+07 2.11401E+07-6.53513E+07-8.13692E+05-3.78766E+06
 -1      1347 5.79267E+07 3.92602E+07-2.11202E+07 6.53512E+07-8.13683E+05-3.78768E+06
 -1      1348-8.51071E+07-2.82823E+07-3.12496E+05-4.92472E+07-1.58080E+05-5.65998E+05
 -1      1349-3.93769E+02-3.90672E+01 1.00130E+04-2.09299E+02-1.58079E+05-5.65994E+05
 -1      1350 8.51063E+07 2.82822E+07 3.32522E+05 4.92468E+07-1.58079E+05-5.65990E+05
 -1      1351-8.65514E+07-2.60556E+07-1.24421E+06-4.52862E+07-1.00355E+05-6.57468E+05
 -1      1353 8.65512E+07 2.60557E+07 1.26420E+06 4.52861E+07-1.00352E+05-6.57465E+05
 -1      1354-8.18930E+07-3.05356E+07-2.35713E+06-4.52377E+07 8.77334E+05-5.24414E+05
 -1      1355 1.17196E+02 1.98869E+02 1.00001E+04 1.35132E+01 8.77334E+05-5.24414E+05
 -1      1356 8.18932E+07 3.05360E+07 2.37713E+06 4.52377E+07 8.77333E+05-5.24414E+05
 -1      1357-7.64844E+07-4.02504E+07-4.08143E+06-4.45465E+07-6.37261E+05-1.29270E+06
 -1      1359 7.64848E+07 4.02508E+07 4.10144E+06 4.45464E+07-6.37262E+05-1.29270E+06
 -1      1360-6.93625E+07-4.97918E+07-5.23968E+06-4.50023E+07 7.83768E+05-6.99216E+05
 -1      1361 2.52957E+02 1.32094E+02 9.98149E+03-1.91943E+01 7.83768E+05-6.99216E+05
 -1      1362 6.93630E+07 4.97921E+07 5.25964E+06 4.50023E+07 7.83769E+05-6.99216E+05
 -1      1363-5.88089E+07-5.86080E+07-1.00619E+07-4.34082E+07-1.61738E+05-1.13587E+06
 -1      1365 5.88094E+07 5.86082E+07 1.00820E+07 4.34082E+07-1.61740E+05-1.13587E+06
 -1      1366-4.41206E+07-6.23616E+07-1.21250E+07-4.34151E+07-8.11978E+05-8.32113E+05
 -1      1367 9.07198E+01-5.88665E+01 9.99883E+03 5.81470E+01-8.11976E+05-8.32113E+05
 -1      1368 4.41207E+07 6.23615E+07 1.21450E+07 4.34152E+07-8.11975E+05-8.32114E+05
 -1      1369-1.42176E+07-5.65664E+07-1.20518E+07-4.36316E+07-3.82656E+05-1.46509E+06
 -1      1371 1.42171E+07 5.65662E+07 1.20718E+07 4.36316E+07-3.82656E+05-1.46509E+06
 -1      1372 3.73458E+06-4.93006E+07-1.51226E+07-3.71877E+07-4.10419E+06-4.42479E+06
 -1      1373-3.76318E+02-3.55832E+00 1.00226E+04-1.58473E+02-4.10419E+06-4.42478E+06
 -1      1374-3.73533E+06 4.93006E+07 1.51427E+07 3.71874E+07-4.10420E+06-4.42478E+06
 -1      1375-6.79389E+07-2.31316E+07 1.16317E+05-4.04705E+07-2.40158E+05-5.42326E+05
 -1      1377 6.79383E+07 2.31314E+07-9.63053E+04 4.04701E+07-2.40157E+05-5.42323E+05
 -1      1378-5.30701E+07-2.51673E+07-6.17502E+05-3.66300E+07 1.85143E+05-5.45237E+05
 -1      1380 5.30704E+07 2.51674E+07 6.37499E+05 3.66300E+07 1.85143E+05-5.45238E+05
 -1      1381-3.40803E+07-4.12296E+07-2.17795E+06-3.36532E+07 2.28349E+05-7.36938E+05
 -1      1383 3.40807E+07 4.12296E+07 2.19793E+06 3.36532E+07 2.28349E+05-7.36938E+05
 -1      1384-2.79448E+06-4.68089E+07-4.26867E+06-2.83494E+07-3.68670E+05-5.43712E+05
 -1      1386 2.79439E+06 4.68089E+07 4.28867E+06 2.83495E+07-3.68670E+05-5.43714E+05
 -1      1387 3.41179E+07-3.61905E+07-6.17304E+06-1.73410E+07-2.69689E+06-4.07487E+06
 -1      1389-3.41183E+07 3.61905E+07 6.19306E+06 1.73406E+07-2.69690E+06-4.07486E+06
 -1      1390-5.19352E+07-1.84807E+07 4.57942E+04-3.23786E+07-2.48077E+05-2.53991E+05
 -1      1391-2.78346E+02-1.42646E+02 9.99358E+03-1.78783E+02-2.48077E+05-2.53992E+05
 -1      1392 5.19347E+07 1.84804E+07-2.58070E+04 3.23783E+07-2.48077E+05-2.53993E+05
 -1      1393-4.13637E+07-1.72511E+07 1.68824E+05-2.92428E+07-3.32145E+05-7.82525E+05
 -1      1395 4.13637E+07 1.72509E+07-1.48818E+05 2.92426E+07-3.32146E+05-7.82525E+05
 -1      1396-2.69084E+07-2.08100E+07 2.04818E+04-2.86035E+07-1.12644E+05-3.21433E+05
 -1      1397 2.13737E+02-1.01985E+02 1.00002E+04-4.77821E+01-1.12644E+05-3.21433E+05
 -1      1398 2.69088E+07 2.08098E+07-4.81416E+02 2.86034E+07-1.12644E+05-3.21433E+05
 -1      1399-1.16134E+07-2.52242E+07 1.27843E+06-2.57763E+07-1.78782E+05-1.11119E+06
 -1      1401 1.16138E+07 2.52240E+07-1.25844E+06 2.57763E+07-1.78782E+05-1.11119E+06
 -1      1402 3.33430E+06-3.14510E+07 1.88844E+06-2.26792E+07-2.07563E+05-6.93005E+05
 -1      1403 2.00035E+02-7.98285E+01 1.00069E+04 5.02445E+01-2.07563E+05-6.93005E+05
 -1      1404-3.33390E+06 3.14508E+07-1.86843E+06 2.26793E+07-2.07564E+05-6.93005E+05
 -1      1405 2.00057E+07-3.13098E+07 2.47306E+06-1.79900E+07-3.90663E+05-9.07625E+05
 -1      1407-2.00056E+07 3.13097E+07-2.45307E+06 1.79900E+07-3.90662E+05-9.07625E+05
 -1      1408 3.84094E+07-3.10402E+07 3.61589E+06-1.41533E+07-5.77307E+04-5.38405E+05
 -1      1409-1.03667E+02-1.25389E+01 9.99907E+03 5.82945E+00-5.77310E+04-5.38405E+05
 -1      1410-3.84096E+07 3.10402E+07-3.59589E+06 1.41533E+07-5.77313E+04-5.38404E+05
 -1      1411 5.53229E+07-2.96720E+07 3.57308E+06-9.64199E+06-6.12432E+05-9.16486E+05
 -1      1413-5.53232E+07 2.96719E+07-3.55307E+06 9.64186E+06-6.12432E+05-9.16488E+05
 -1      1414 6.69676E+07-2.18313E+07 3.89136E+06-2.05161E+06-2.02409E+06-4.07598E+06
 -1      1415-1.90205E+02-9.24659E+01 9.99017E+03-1.00641E+02-2.02409E+06-4.07599E+06
 -1      1416-6.69680E+07 2.18311E+07-3.87138E+06 2.05141E+06-2.02409E+06-4.07599E+06
 -1      1417-2.80334E+07-1.38238E+07-2.00389E+05-2.05708E+07-3.30037E+05-2.97991E+05
 -1      1419 2.80331E+07 1.38237E+07 2.20388E+05 2.05705E+07-3.30037E+05-2.97993E+05
 -1      1420 1.79107E+06-1.40925E+07 2.20731E+05-1.66108E+07-7.97119E+04-4.43380E+05
 -1      1422-1.79069E+06 1.40923E+07-2.00731E+05 1.66108E+07-7.97118E+04-4.43380E+05
 -1      1423 3.18422E+07-2.15574E+07 8.24881E+05-1.04161E+07 4.33799E+04-4.80554E+05
 -1      1425-3.18419E+07 2.15573E+07-8.04880E+05 1.04162E+07 4.33796E+04-4.80554E+05
 -1      1426 6.24915E+07-2.18158E+07 1.14902E+06-2.44062E+06-1.99863E+05-2.99757E+05
 -1      1428-6.24916E+07 2.18157E+07-1.12903E+06 2.44056E+06-1.99864E+05-2.99756E+05
 -1      1429 8.68179E+07-1.50357E+07 1.48913E+06 1.05284E+07-2.25458E+06-3.85699E+06
 -1      1431-8.68183E+07 1.50355E+07-1.46913E+06-1.05286E+07-2.25458E+06-3.85699E+06
 -1      1432-3.07315E+06-8.60100E+06 4.07596E+04-8.79966E+06-1.60793E+04-1.25113E+05
 -1      1433-3.88998E+01-3.10084E+01 9.99986E+03-4.46952E+01-1.60793E+04-1.25112E+05
 -1      1434 3.07307E+06 8.60094E+06-2.07599E+04 8.79957E+06-1.60793E+04-1.25112E+05
 -1      1435 1.11074E+07-6.24570E+06-2.68144E+04-5.61560E+06-4.31041E+05-7.17745E+05
 -1      1437-1.11073E+07 6.24555E+06 4.68139E+04 5.61554E+06-4.31041E+05-7.17745E+05
 -1      1438 2.91196E+07-7.91880E+06-1.53468E+05-4.72310E+06-2.05191E+05-3.55400E+05
 -1      1439 1.71621E+02-1.09031E+02 9.99958E+03-3.11307E+00-2.05191E+05-3.55400E+05
 -1      1440-2.91192E+07 7.91859E+06 1.73467E+05 4.72309E+06-2.05191E+05-3.55400E+05
 -1      1441 4.41764E+07-9.86265E+06-3.84993E+05-1.50754E+06-2.47652E+05-7.13741E+05
 -1      1443-4.41761E+07 9.86246E+06 4.04992E+05 1.50755E+06-2.47652E+05-7.13741E+05
 -1      1444 5.99609E+07-1.20301E+07-4.65282E+05 1.45161E+06-2.35613E+05-4.18508E+05
 -1      1445 8.29780E+01-8.20278E+01 9.99857E+03 1.15401E+01-2.35613E+05-4.18508E+05
 -1      1446-5.99608E+07 1.20300E+07 4.85279E+05-1.45158E+06-2.35613E+05-4.18508E+05
 -1      1447 7.32878E+07-1.17758E+07-7.24934E+05 5.97932E+06-3.68675E+05-7.81124E+05
 -1      1449-7.32877E+07 1.17757E+07 7.44936E+05-5.97937E+06-3.68675E+05-7.81124E+05
 -1      1450 8.80708E+07-1.22226E+07-7.58064E+05 9.61351E+06 1.01287E+04-2.20362E+05
 -1      1451-5.97488E+01-7.20304E+01 9.99950E+03-5.63704E+01 1.01288E+04-2.20362E+05
 -1      1452-8.80709E+07 1.22225E+07 7.78063E+05-9.61362E+06 1.01288E+04-2.20363E+05
 -1      1453 1.00111E+08-1.29081E+07-8.16269E+05 1.47413E+07-3.91826E+05-6.71922E+05
 -1      1455-1.00111E+08 1.29080E+07 8.36265E+05-1.47415E+07-3.91826E+05-6.71921E+05
 -1      1456 1.06135E+08-8.64041E+06-1.19315E+06 2.33106E+07-2.00096E+06-3.65541E+06
 -1      1457-1.99142E+02-5.64782E+01 1.00011E+04-1.22259E+02-2.00096E+06-3.65541E+06
 -1      1458-1.06136E+08 8.64030E+06 1.21316E+06-2.33109E+07-2.00096E+06-3.65541E+06
 -1      1459 2.17698E+07-2.95751E+06 1.00643E+05 3.31511E+06-1.27734E+04 8.00508E+04
 -1      1461-2.17697E+07 2.95751E+06-8.06439E+04-3.31510E+06-1.27733E+04 8.00508E+04
 -1      1462 5.20105E+07-1.97992E+06-7.64449E+04 6.33958E+06-1.50564E+05-3.59121E+05
 -1      1464-5.20102E+07 1.97977E+06 9.64434E+04-6.33956E+06-1.50564E+05-3.59121E+05
 -1      1465 8.01378E+07-4.19201E+06-1.10097E+05 1.15542E+07-1.15595E+05-2.92309E+05
 -1      1467-8.01376E+07 4.19186E+06 1.30096E+05-1.15542E+07-1.15595E+05-2.92309E+05
 -1      1468 1.04054E+08-4.86302E+06-2.61772E+05 1.86915E+07-7.17096E+04-1.62330E+05
 -1      1470-1.04054E+08 4.86286E+06 2.81772E+05-1.86916E+07-7.17095E+04-1.62330E+05
 -1      1471 1.17439E+08-2.47236E+06-4.95978E+05 3.18906E+07-1.88879E+06-3.38829E+06
 -1      1473-1.17439E+08 2.47222E+06 5.15977E+05-3.18908E+07-1.88879E+06-3.38829E+06
 -1      1474 4.58021E+07 2.36710E+06-1.78322E+05 1.52260E+07 1.29779E+05 3.78152E+05
 -1      1475 1.14664E+02 2.39947E+01 9.99975E+03 5.41225E+01 1.29779E+05 3.78152E+05
 -1      1476-4.58018E+07-2.36705E+06 1.98321E+05-1.52258E+07 1.29779E+05 3.78152E+05
 -1      1477 5.93984E+07 4.55416E+06 4.24796E+04 1.69173E+07-3.27876E+05-5.61990E+05
 -1      1479-5.93981E+07-4.55419E+06-2.24799E+04-1.69172E+07-3.27876E+05-5.61989E+05
 -1      1480 7.52253E+07 4.08265E+06 1.34882E+05 1.72829E+07-2.02478E+05-3.43897E+05
 -1      1481 1.51113E+02-4.87510E+01 9.99980E+03 1.87344E+01-2.02478E+05-3.43897E+05
 -1      1482-7.52250E+07-4.08275E+06-1.14883E+05-1.72829E+07-2.02478E+05-3.43897E+05
 -1      1483 8.72581E+07 3.99129E+06 7.45236E+04 1.96266E+07-2.89227E+05-4.90105E+05
 -1      1485-8.72579E+07-3.99141E+06-5.45254E+04-1.96266E+07-2.89227E+05-4.90105E+05
 -1      1486 1.00184E+08 3.49223E+06 1.59718E+05 2.15139E+07-1.20027E+05-2.35254E+05
 -1      1487 6.44006E+01-7.06383E+01 9.99959E+03-1.89897E+01-1.20027E+05-2.35254E+05
 -1      1488-1.00184E+08-3.49237E+06-1.39719E+05-2.15139E+07-1.20027E+05-2.35254E+05
 -1      1489 1.09573E+08 3.56830E+06 2.08060E+05 2.50636E+07-2.82956E+05-5.53374E+05
 -1      1491-1.09573E+08-3.56845E+06-1.88060E+05-2.50637E+07-2.82956E+05-5.53374E+05
 -1      1492 1.20021E+08 2.41309E+06 2.04806E+05 2.79406E+07 4.62437E+04-6.99410E+04
 -1      1493-7.42070E+01-7.97982E+01 9.99930E+03-8.59540E+01 4.62437E+04-6.99410E+04
 -1      1494-1.20021E+08-2.41325E+06-1.84807E+05-2.79408E+07 4.62437E+04-6.99411E+04
 -1      1495 1.26701E+08 9.94808E+05 2.80844E+05 3.28917E+07-1.95126E+05-4.45762E+05
 -1      1497-1.26701E+08-9.94974E+05-2.60845E+05-3.28919E+07-1.95126E+05-4.45762E+05
 -1      1498 1.29197E+08 3.87410E+06 3.91323E+05 4.02974E+07-1.76763E+06-3.18243E+06
 -1      1499-2.45618E+02-8.73725E+01 9.99915E+03-1.44545E+02-1.76763E+06-3.18243E+06
 -1      1500-1.29198E+08-3.87427E+06-3.71324E+05-4.02977E+07-1.76763E+06-3.18243E+06
 -1      1501 6.64585E+07 6.65166E+06-1.84163E+04 2.48824E+07 2.77819E+05 5.86056E+05
 -1      1503-6.64582E+07-6.65157E+06 3.84150E+04-2.48823E+07 2.77818E+05 5.86055E+05
 -1      1504 9.23604E+07 8.39985E+06 5.07746E+04 2.53306E+07-1.76220E+05-2.71217E+05
 -1      1506-9.23601E+07-8.39991E+06-3.07752E+04-2.53306E+07-1.76220E+05-2.71217E+05
 -1      1507 1.13283E+08 8.41925E+06 9.46784E+04 2.83113E+07-1.01658E+05-1.86220E+05
 -1      1509-1.13282E+08-8.41938E+06-7.46791E+04-2.83113E+07-1.01659E+05-1.86220E+05
 -1      1510 1.28463E+08 7.18488E+06 6.77482E+04 3.37512E+07 1.74781E+04-6.17438E+04
 -1      1512-1.28463E+08-7.18506E+06-4.77492E+04-3.37514E+07 1.74782E+04-6.17435E+04
 -1      1513 1.33355E+08 7.98995E+06 1.52139E+05 4.52946E+07-1.54531E+06-2.81685E+06
 -1      1515-1.33356E+08-7.99014E+06-1.32139E+05-4.52949E+07-1.54531E+06-2.81685E+06
 -1      1516 8.68171E+07 1.07912E+07 8.66864E+03 3.43274E+07 4.40557E+05 8.74812E+05
 -1      1517 1.96702E+02 6.17173E+01 1.00001E+04 1.08938E+02 4.40557E+05 8.74812E+05
 -1      1518-8.68167E+07-1.07911E+07 1.13315E+04-3.43272E+07 4.40557E+05 8.74813E+05
 -1      1519 9.77056E+07 1.23220E+07 2.28222E+04 3.41476E+07-2.38029E+05-3.50753E+05
 -1      1521-9.77052E+07-1.23219E+07-2.82265E+03-3.41475E+07-2.38029E+05-3.50752E+05
 -1      1522 1.09637E+08 1.27451E+07 1.76379E+04 3.33510E+07-1.74807E+05-2.59078E+05
 -1      1523 1.62001E+02-1.70888E+01 9.99946E+03 3.86282E+01-1.74806E+05-2.59079E+05
 -1      1524-1.09637E+08-1.27452E+07 2.36098E+03-3.33510E+07-1.74806E+05-2.59079E+05
 -1      1525 1.17504E+08 1.33390E+07-4.00124E+04 3.45045E+07-2.08633E+05-3.07986E+05
 -1      1527-1.17504E+08-1.33391E+07 6.00116E+04-3.45045E+07-2.08633E+05-3.07986E+05
 -1      1528 1.26288E+08 1.32669E+07-2.23095E+04 3.51353E+07-8.19027E+04-1.07887E+05
 -1      1529 5.90674E+01-6.35855E+01 9.99949E+03-2.95438E+01-8.19027E+04-1.07887E+05
 -1      1530-1.26287E+08-1.32670E+07 4.23085E+04-3.51353E+07-8.19027E+04-1.07887E+05
 -1      1531 1.31157E+08 1.31901E+07-3.99464E+03 3.77098E+07-1.55916E+05-3.12583E+05
 -1      1533-1.31157E+08-1.31903E+07 2.39936E+04-3.77099E+07-1.55916E+05-3.12583E+05
 -1      1534 1.36966E+08 1.19789E+07-4.40003E+04 3.97493E+07 6.81228E+04-1.65110E+03
 -1      1535-9.24305E+01-9.67545E+01 9.99959E+03-1.05690E+02 6.81229E+04-1.65133E+03
 -1      1536-1.36967E+08-1.19791E+07 6.39995E+04-3.97495E+07 6.81229E+04-1.65155E+03
 -1      1537 1.38728E+08 1.06158E+07-4.67945E+04 4.41306E+07-7.50144E+04-2.46608E+05
 -1      1539-1.38729E+08-1.06160E+07 6.67932E+04-4.41308E+07-7.50144E+04-2.46608E+05
 -1      1540 1.37590E+08 1.21607E+07-4.72837E+04 5.01863E+07-1.41857E+06-2.57344E+06
 -1      1541-3.02319E+02-1.04217E+02 9.99920E+03-1.78567E+02-1.41857E+06-2.57344E+06
 -1      1542-1.37591E+08-1.21609E+07 6.72821E+04-5.01866E+07-1.41857E+06-2.57344E+06
 -1      1543 1.01543E+08 1.30303E+07-7.85485E+03 4.06535E+07 5.66326E+05 1.14718E+06
 -1      1545-1.01543E+08-1.30302E+07 2.78535E+04-4.06532E+07 5.66326E+05 1.14718E+06
 -1      1546 1.20605E+08 1.48429E+07 3.79458E+04 3.78686E+07-1.55577E+05-1.97212E+05
 -1      1548-1.20604E+08-1.48429E+07-1.79466E+04-3.78685E+07-1.55577E+05-1.97212E+05
 -1      1549 1.32581E+08 1.56582E+07 7.76642E+03 3.84536E+07-4.58503E+04-9.33174E+04
 -1      1551-1.32581E+08-1.56583E+07 1.22329E+04-3.84537E+07-4.58503E+04-9.33173E+04
 -1      1552 1.38577E+08 1.48273E+07-1.01085E+04 4.21546E+07 6.87480E+04 2.57176E+04
 -1      1554-1.38578E+08-1.48275E+07 3.01078E+04-4.21548E+07 6.87480E+04 2.57178E+04
 -1      1555 1.35202E+08 1.44460E+07-7.52731E+03 5.15161E+07-1.19702E+06-2.22012E+06
 -1      1557-1.35203E+08-1.44462E+07 2.75269E+04-5.15165E+07-1.19702E+06-2.22012E+06
 -1      1558 1.16356E+08 1.53077E+07 1.32266E+04 4.67338E+07 7.79949E+05 1.40398E+06
 -1      1559 2.58001E+02 8.04624E+01 1.00004E+04 1.45418E+02 7.79949E+05 1.40398E+06
 -1      1560-1.16355E+08-1.53075E+07 6.77417E+03-4.67335E+07 7.79950E+05 1.40398E+06
 -1      1561 1.24131E+08 1.59409E+07 3.09408E+04 4.44439E+07-1.27684E+05-1.26205E+05
 -1      1563-1.24131E+08-1.59408E+07-1.09413E+04-4.44437E+07-1.27684E+05-1.26204E+05
 -1      1564 1.31442E+08 1.68779E+07 4.75691E+02 4.23811E+07-1.38267E+05-1.55275E+05
 -1      1565 1.81633E+02 1.44121E+00 9.99942E+03 5.71181E+01-1.38267E+05-1.55275E+05
 -1      1566-1.31442E+08-1.68779E+07 1.95231E+04-4.23810E+07-1.38267E+05-1.55275E+05
 -1      1567 1.34726E+08 1.78428E+07 3.18915E+03 4.23907E+07-9.64486E+04-1.29479E+05
 -1      1569-1.34726E+08-1.78429E+07 1.68101E+04-4.23907E+07-9.64489E+04-1.29480E+05
 -1      1570 1.38995E+08 1.80807E+07 8.31478E+04 4.18510E+07-6.37842E+04-2.10636E+04
 -1      1571 6.10417E+01-6.75927E+01 9.99937E+03-2.44745E+01-6.37842E+04-2.10636E+04
 -1      1572-1.38995E+08-1.80808E+07-6.31491E+04-4.18510E+07-6.37842E+04-2.10636E+04
 -1      1573 1.39116E+08 1.83560E+07 5.41625E+04 4.34975E+07-3.76501E+04-7.38008E+04
 -1      1575-1.39116E+08-1.83562E+07-3.41634E+04-4.34976E+07-3.76502E+04-7.38009E+04
 -1      1576 1.40112E+08 1.76328E+07-1.19325E+04 4.46797E+07 9.33531E+04 5.51922E+04
 -1      1577-1.08931E+02-1.23289E+02 9.99955E+03-1.24511E+02 9.33529E+04 5.51921E+04
 -1      1578-1.40112E+08-1.76330E+07 3.19317E+04-4.46800E+07 9.33528E+04 5.51920E+04
 -1      1579 1.37203E+08 1.64915E+07 2.50549E+04 4.83727E+07 2.81516E+04-5.51461E+04
 -1      1581-1.37204E+08-1.64917E+07-5.05628E+03-4.83731E+07 2.81515E+04-5.51460E+04
 -1      1582 1.32899E+08 1.67722E+07 7.00862E+04 5.28521E+07-1.02982E+06-1.93094E+06
 -1      1583-3.73829E+02-1.33523E+02 9.99934E+03-2.24526E+02-1.02982E+06-1.93094E+06
 -1      1584-1.32900E+08-1.67725E+07-5.00875E+04-5.28525E+07-1.02982E+06-1.93094E+06
 -1      1585 1.24585E+08 1.53834E+07-2.89213E+04 4.93654E+07 8.94855E+05 1.75917E+06
 -1      1587-1.24584E+08-1.53832E+07 4.89195E+04-4.93651E+07 8.94853E+05 1.75917E+06
 -1      1588 1.36059E+08 1.65649E+07 6.84473E+04 4.32105E+07-1.17355E+05-1.38971E+05
 -1      1590-1.36058E+08-1.65649E+07-4.84477E+04-4.32103E+07-1.17355E+05-1.38971E+05
 -1      1591 1.38414E+08 1.83251E+07-2.14614E+03 4.15348E+07-7.13371E+03-1.23510E+04
 -1      1593-1.38414E+08-1.83252E+07 2.21457E+04-4.15348E+07-7.13364E+03-1.23511E+04
 -1      1594 1.35197E+08 1.86294E+07 3.51701E+04 4.37406E+07 9.93833E+04 9.87076E+04
 -1      1596-1.35197E+08-1.86297E+07-1.51710E+04-4.37409E+07 9.93836E+04 9.87076E+04
 -1      1597 1.24428E+08 1.74601E+07 2.34470E+04 5.08552E+07-8.28601E+05-1.58991E+06
 -1      1599-1.24429E+08-1.74604E+07-3.44767E+03-5.08557E+07-8.28601E+05-1.58991E+06
 -1      1600 1.33260E+08 1.56222E+07 1.11825E+05 5.17948E+07 1.04104E+06 1.92145E+06
 -1      1601 3.09733E+02 1.10050E+02 1.00011E+04 1.73018E+02 1.04104E+06 1.92146E+06
 -1      1602-1.33259E+08-1.56220E+07-9.18226E+04-5.17944E+07 1.04103E+06 1.92146E+06
 -1      1603 1.37723E+08 1.49441E+07 5.27929E+04 4.73780E+07 4.17182E+04 1.14494E+05
 -1      1605-1.37722E+08-1.49440E+07-3.27940E+04-4.73778E+07 4.17156E+04 1.14496E+05
 -1      1606 1.40220E+08 1.60297E+07-6.70253E+04 4.39892E+07-6.64701E+04-1.76253E+04
 -1      1607 1.96694E+02 1.14439E+01 9.99925E+03 8.24822E+01-6.64696E+04-1.76257E+04
 -1      1608-1.40219E+08-1.60296E+07 8.70238E+04-4.39890E+07-6.64691E+04-1.76261E+04
 -1      1609 1.38683E+08 1.76314E+07-8.05931E+04 4.29289E+07-5.85393E+04 4.23068E+04
 -1      1611-1.38683E+08-1.76315E+07 1.00594E+05-4.29288E+07-5.85383E+04 4.23062E+04
 -1      1612 1.38243E+08 1.87212E+07 8.10169E+04 4.13726E+07-7.19018E+03 6.03825E+04
 -1      1613 7.30570E+01-8.18027E+01 9.99940E+03 4.29398E-01-7.19008E+03 6.03824E+04
 -1      1614-1.38242E+08-1.87213E+07-6.10181E+04-4.13726E+07-7.18999E+03 6.03823E+04
 -1      1615 1.33784E+08 1.96697E+07 8.69533E+04 4.23550E+07 8.37235E+04 1.35256E+05
 -1      1617-1.33784E+08-1.96700E+07-6.69556E+04-4.23551E+07 8.37241E+04 1.35255E+05
 -1      1618 1.30145E+08 1.95500E+07 1.84557E+04 4.28955E+07 7.85085E+04 1.02345E+05
 -1      1619-9.91319E+01-1.77866E+02 9.99979E+03-1.47578E+02 7.85089E+04 1.02345E+05
 -1      1620-1.30146E+08-1.95504E+07 1.54385E+03-4.28958E+07 7.85094E+04 1.02344E+05
 -1      1621 1.22986E+08 1.89171E+07-1.57306E+03 4.59109E+07 1.34642E+05 1.56613E+05
 -1      1623-1.22986E+08-1.89175E+07 2.15725E+04-4.59114E+07 1.34642E+05 1.56613E+05
 -1      1624 1.15876E+08 1.81009E+07-6.15595E+04 4.88365E+07-6.47648E+05-1.31432E+06
 -1      1625-4.99313E+02-1.87335E+02 9.99854E+03-3.06526E+02-6.47648E+05-1.31432E+06
 -1      1626-1.15877E+08-1.81013E+07 8.15566E+04-4.88371E+07-6.47648E+05-1.31432E+06
 -1      1627 1.34532E+08 1.31945E+07-1.07734E+05 5.06610E+07 1.31984E+06 2.37689E+06
 -1      1629-1.34532E+08-1.31943E+07 1.27731E+05-5.06607E+07 1.31984E+06 2.37689E+06
 -1      1630 1.37923E+08 1.31863E+07 8.67490E+04 4.10361E+07-1.28705E+05-7.42859E+04
 -1      1632-1.37922E+08-1.31862E+07-6.67494E+04-4.10359E+07-1.28706E+05-7.42851E+04
 -1      1633 1.30873E+08 1.76348E+07 6.09141E+04 3.76067E+07-8.39109E+03 3.29822E+04
 -1      1635-1.30873E+08-1.76350E+07-4.09149E+04-3.76067E+07-8.39138E+03 3.29824E+04
 -1      1636 1.18800E+08 1.91375E+07-2.17989E+04 3.90067E+07 1.26379E+05 1.75036E+05
 -1      1638-1.18800E+08-1.91380E+07 4.17978E+04-3.90071E+07 1.26377E+05 1.75037E+05
 -1      1639 1.02543E+08 1.71517E+07 2.33664E+04 4.42192E+07-4.20958E+05-9.13721E+05
 -1      1641-1.02544E+08-1.71521E+07-3.36526E+03-4.42200E+07-4.20958E+05-9.13721E+05
 -1      1642 1.36155E+08 1.07551E+07-2.25817E+05 4.95304E+07 1.27235E+06 2.60217E+06
 -1      1643 3.36444E+02 8.50693E+01 9.99919E+03 1.95616E+02 1.27236E+06 2.60217E+06
 -1      1644-1.36154E+08-1.07549E+07 2.45816E+05-4.95301E+07 1.27237E+06 2.60216E+06
 -1      1645 1.37544E+08 8.71755E+06-4.59127E+04 4.28331E+07 2.67777E+05 2.70268E+05
 -1      1647-1.37544E+08-8.71739E+06 6.59147E+04-4.28327E+07 2.67786E+05 2.70264E+05
 -1      1648 1.35550E+08 1.01743E+07 1.67235E+05 3.79158E+07-7.77528E+04 8.43495E+04
 -1      1649 1.73631E+02 4.88964E+01 9.99837E+03 1.34204E+02-7.77546E+04 8.43505E+04
 -1      1650-1.35550E+08-1.01742E+07-1.47238E+05-3.79155E+07-7.77565E+04 8.43515E+04
 -1      1651 1.29174E+08 1.40019E+07 1.90147E+05 3.59853E+07-4.63363E+04 3.95547E+05
 -1      1653-1.29173E+08-1.40020E+07-1.70149E+05-3.59851E+07-4.63398E+04 3.95549E+05
 -1      1654 1.23352E+08 1.64642E+07-2.99661E+04 3.39042E+07 1.64137E+05 4.05000E+04
 -1      1655 1.49101E+02-9.60390E+01 1.00017E+04 4.72754E+01 1.64137E+05 4.05002E+04
 -1      1656-1.23352E+08-1.64644E+07 4.99695E+04-3.39041E+07 1.64136E+05 4.05005E+04
 -1      1657 1.14930E+08 1.76041E+07-1.85027E+05 3.49035E+07 1.00263E+05 2.88324E+05
 -1      1659-1.14930E+08-1.76044E+07 2.05022E+05-3.49036E+07 1.00260E+05 2.88325E+05
 -1      1660 1.07767E+08 1.89133E+07 8.82658E+04 3.53388E+07 4.94034E+04 1.60515E+05
 -1      1661-5.36414E+01-2.29809E+02 1.00001E+04-1.89993E+02 4.94016E+04 1.60516E+05
 -1      1662-1.07767E+08-1.89138E+07-6.82656E+04-3.53392E+07 4.93998E+04 1.60516E+05
 -1      1663 9.74431E+07 1.86133E+07 1.01336E+05 3.79696E+07 2.68555E+05 3.27829E+05
 -1      1665-9.74439E+07-1.86138E+07-8.13349E+04-3.79702E+07 2.68552E+05 3.27831E+05
 -1      1666 8.86895E+07 1.60151E+07-1.04164E+05 3.95348E+07-3.63408E+05-6.08963E+05
 -1      1667-7.22965E+02-2.66154E+02 9.99706E+03-4.41431E+02-3.63407E+05-6.08963E+05
 -1      1668-8.86909E+07-1.60156E+07 1.24159E+05-3.95357E+07-3.63407E+05-6.08963E+05
 -1      1669 1.31681E+08 6.28349E+06 8.60166E+05 4.38692E+07 1.83694E+06 2.77105E+06
 -1      1671-1.31680E+08-6.28315E+06-8.40163E+05-4.38689E+07 1.83692E+06 2.77106E+06
 -1      1672 1.23911E+08 5.66427E+06-4.50706E+05 3.07488E+07-1.68338E+05 1.46451E+05
 -1      1674-1.23911E+08-5.66416E+06 4.70707E+05-3.07484E+07-1.68332E+05 1.46448E+05
 -1      1675 1.08851E+08 1.39916E+07-7.09267E+04 2.80691E+07-3.56705E+04 1.90946E+05
 -1      1677-1.08850E+08-1.39918E+07 9.09216E+04-2.80690E+07-3.56691E+04 1.90945E+05
 -1      1678 9.14308E+07 1.78016E+07 2.50250E+05 2.96320E+07 1.03203E+05 1.35222E+05
 -1      1680-9.14310E+07-1.78020E+07-2.30251E+05-2.96324E+07 1.03208E+05 1.35219E+05
 -1      1681 7.19484E+07 1.40771E+07-1.25858E+05 3.31275E+07-3.18364E+04-3.19049E+05
 -1      1683-7.19500E+07-1.40777E+07 1.45860E+05-3.31284E+07-3.18371E+04-3.19049E+05
 -1      1684 1.25979E+08 1.22376E+06 1.40169E+06 3.71724E+07 2.41356E+06 4.07850E+06
 -1      1685 2.38774E+02 2.05520E+02 1.00073E+04 1.67864E+02 2.41353E+06 4.07853E+06
 -1      1686-1.25979E+08-1.22335E+06-1.38168E+06-3.71721E+07 2.41349E+06 4.07855E+06
 -1      1687 1.21860E+08-2.71511E+06-1.84449E+05 2.91708E+07 1.46185E+05 1.71249E+05
 -1      1689-1.21860E+08 2.71526E+06 2.04440E+05-2.91704E+07 1.46149E+05 1.71274E+05
 -1      1690 1.14222E+08 1.93450E+06-2.49826E+05 2.37364E+07-1.94465E+05 6.65749E+04
 -1      1691 2.22948E+02 4.37085E+01 1.00004E+04 2.19094E+02-1.94458E+05 6.65697E+04
 -1      1692-1.14221E+08-1.93442E+06 2.69827E+05-2.37360E+07-1.94451E+05 6.65645E+04
 -1      1693 1.04186E+08 9.48260E+06 6.16129E+05 2.28528E+07 2.81451E+05 9.42235E+05
 -1      1695-1.04186E+08-9.48252E+06-5.96120E+05-2.28525E+07 2.81463E+05 9.42227E+05
 -1      1696 9.33150E+07 1.11128E+07-5.44076E+05 2.19823E+07-9.38859E+04-1.87338E+05
 -1      1697 2.94773E+02-3.76440E+01 9.99374E+03 4.72033E+01-9.38840E+04-1.87339E+05
 -1      1698-9.33144E+07-1.11129E+07 5.64063E+05-2.19822E+07-9.38821E+04-1.87341E+05
 -1      1699 8.34887E+07 1.39982E+07-2.51775E+05 2.33213E+07 1.62763E+05 5.63107E+05
 -1      1701-8.34885E+07-1.39983E+07 2.71775E+05-2.33215E+07 1.62773E+05 5.63101E+05
 -1      1702 7.45337E+07 1.65554E+07 2.03441E+05 2.41877E+07-1.60947E+04 2.03161E+05
 -1      1703-9.62900E+01-8.14093E+01 9.99995E+03-2.11211E+02-1.60881E+04 2.03157E+05
 -1      1704-7.45339E+07-1.65556E+07-1.83441E+05-2.41881E+07-1.60816E+04 2.03153E+05
 -1      1705 6.33885E+07 1.56749E+07-1.83467E+04 2.66415E+07 2.83916E+05 4.38676E+05
 -1      1707-6.33895E+07-1.56753E+07 3.83432E+04-2.66422E+07 2.83926E+05 4.38670E+05
 -1      1708 5.57274E+07 1.24519E+07 1.02348E+05 2.69876E+07-5.60416E+04-1.27625E+04
 -1      1709-9.29977E+02-3.24629E+02 1.00011E+04-5.40877E+02-5.60427E+04-1.27623E+04
 -1      1710-5.57292E+07-1.24526E+07-8.23457E+04-2.69887E+07-5.60437E+04-1.27620E+04
 -1      1711 1.09862E+08-1.20164E+07-1.18426E+06 2.68251E+07 1.60140E+06 3.01681E+06
 -1      1713-1.09862E+08 1.20161E+07 1.20423E+06-2.68248E+07 1.60149E+06 3.01675E+06
 -1      1714 9.25886E+07 2.82476E+06 6.18569E+05 1.32895E+07-1.74981E+05 1.39992E+05
 -1      1716-9.25879E+07-2.82420E+06-5.98573E+05-1.32891E+07-1.75000E+05 1.40005E+05
 -1      1717 7.12512E+07 9.04540E+06 1.58271E+05 1.61370E+07 1.17720E+05 5.89681E+05
 -1      1719-7.12506E+07-9.04474E+06-1.38256E+05-1.61371E+07 1.17713E+05 5.89684E+05
 -1      1720 5.51192E+07 1.32079E+07-2.51728E+05 1.93257E+07 1.11132E+05 2.06833E+05
 -1      1722-5.51195E+07-1.32076E+07 2.71728E+05-1.93259E+07 1.11114E+05 2.06844E+05
 -1      1723 3.98175E+07 9.39038E+06 9.93613E+04 1.95254E+07 2.20553E+05 1.74017E+05
 -1      1725-3.98193E+07-9.39095E+06-7.93683E+04-1.95264E+07 2.20557E+05 1.74015E+05
 -1      1726 1.00394E+08-2.17523E+07-7.23945E+05 9.53008E+06 3.25653E+06 4.27090E+06
 -1      1727-3.28012E+02-7.43005E+02 1.00169E+04 5.03387E+02 3.25666E+06 4.27082E+06
 -1      1728-1.00395E+08 2.17508E+07 7.43979E+05-9.52908E+06 3.25678E+06 4.27074E+06
 -1      1729 8.91358E+07-1.10611E+07 8.07046E+05 2.98288E+06 2.04045E+05 7.61793E+05
 -1      1731-8.91354E+07 1.10610E+07-7.87049E+05-2.98243E+06 2.04169E+05 7.61720E+05
 -1      1732 6.80339E+07 3.17422E+06 4.48290E+05 2.66645E+06 9.77002E+04 1.21917E+05
 -1      1733 6.84183E+02 4.74216E+02 9.99622E+03-6.67861E+01 9.76732E+04 1.21933E+05
 -1      1734-6.80326E+07-3.17327E+06-4.28298E+05-2.66658E+06 9.76462E+04 1.21950E+05
 -1      1735 5.52372E+07 1.78437E+06-1.34508E+06 8.54843E+06 3.73914E+05 8.64543E+05
 -1      1737-5.52363E+07-1.78335E+06 1.36508E+06-8.54866E+06 3.73872E+05 8.64566E+05
 -1      1738 4.86245E+07 7.21951E+06 7.64191E+05 1.11008E+07-6.78962E+05 4.19255E+05
 -1      1739 2.38157E+02 7.17772E+02 9.99604E+03-1.14084E+02-6.78970E+05 4.19261E+05
 -1      1740-4.86240E+07-7.21808E+06-7.44199E+05-1.11011E+07-6.78978E+05 4.19266E+05
 -1      1741 4.28042E+07 1.04187E+07 7.84127E+05 1.29376E+07 2.55360E+05 7.47033E+05
 -1      1743-4.28042E+07-1.04175E+07-7.64124E+05-1.29377E+07 2.55326E+05 7.47053E+05
 -1      1744 3.59205E+07 1.00494E+07-5.85465E+05 1.48896E+07-2.19774E+05 1.35547E+05
 -1      1745-2.74222E+02 4.03963E+02 9.99689E+03 7.68830E+00-2.19799E+05 1.35561E+05
 -1      1746-3.59211E+07-1.00486E+07 6.05459E+05-1.48896E+07-2.19823E+05 1.35576E+05
 -1      1747 2.74963E+07 1.15632E+07 4.23335E+04 1.44559E+07 1.99874E+05 5.75202E+05
 -1      1749-2.74974E+07-1.15630E+07-2.23363E+04-1.44563E+07 1.99837E+05 5.75225E+05
 -1      1750 2.37952E+07 6.27609E+06 4.67767E+04 1.10058E+07 4.11926E+05 2.72807E+05
 -1      1751-8.16564E+02-2.18711E+02 1.00021E+04-4.19864E+02 4.11930E+05 2.72806E+05
 -1      1752-2.37968E+07-6.27653E+06-2.67724E+04-1.10066E+07 4.11935E+05 2.72804E+05
 -1      1753 5.97153E+07-9.39353E+06-8.10613E+05-1.36713E+07 8.73568E+05 5.64525E+06
 -1      1755-5.97147E+07 9.39564E+06 8.30613E+05 1.36700E+07 8.73216E+05 5.64546E+06
 -1      1756 3.17822E+07 7.08734E+05-9.15435E+04 1.03955E+06 4.14949E+05 1.84892E+05
 -1      1758-3.17812E+07-7.06456E+05 1.11549E+05-1.03976E+06 4.15022E+05 1.84847E+05
 -1      1759 2.34852E+07 4.51958E+06 4.75402E+05 1.00856E+07-1.30756E+05-3.57844E+04
 -1      1761-2.34853E+07-4.51700E+06-4.55412E+05-1.00853E+07-1.30731E+05-3.57971E+04
 -1      1762 1.81812E+07 6.22007E+06-1.81257E+04 1.15386E+07-1.18777E+05 2.16121E+05
 -1      1764-1.81818E+07-6.21853E+06 3.81272E+04-1.15381E+07-1.18710E+05 2.16081E+05
 -1      1765 1.24013E+07 7.27133E+05 1.69409E+04 5.84695E+06-9.57471E+04 3.54722E+05
 -1      1767-1.24022E+07-7.27389E+05 3.05992E+03-5.84729E+06-9.57602E+04 3.54728E+05
 -1      1768 1.27219E+07-1.97712E+05-3.74091E+06-2.79534E+07-4.09582E+06 4.00800E+06
 -1      1769 1.22071E+03 3.22191E+03 9.91562E+03-2.21017E+03-4.09629E+06 4.00826E+06
 -1      1770-1.27194E+07 2.04156E+05 3.76074E+06 2.79489E+07-4.09677E+06 4.00851E+06
 -1      1771 8.04856E+06 1.66776E+06-2.15839E+05-1.61681E+07-8.21873E+05 2.29116E+06
 -1      1773-8.04721E+06-1.66309E+06 2.35859E+05 1.61661E+07-8.22329E+05 2.29141E+06
 -1      1774-2.94551E+06-1.62085E+06-1.33415E+05-2.78578E+05 3.34937E+05 1.68911E+05
 -1      1775 9.75269E+01 1.86781E+03 1.00159E+04 8.19432E+01 3.35039E+05 1.68856E+05
 -1      1776 2.94571E+06 1.62458E+06 1.53446E+05 2.78741E+05 3.35141E+05 1.68801E+05
 -1      1777-1.15081E+06-7.18084E+05 1.25920E+05 3.81397E+06 1.87623E+05 2.33735E+05
 -1      1779 1.15062E+06 7.22282E+05-1.05946E+05-3.81374E+06 1.87773E+05 2.33650E+05
 -1      1780-3.36714E+05 1.92540E+06 6.13463E+05 7.90404E+06 1.38138E+06 8.86045E+05
 -1      1781-2.40497E+02 1.85105E+03 1.00181E+04 3.30975E+02 1.38141E+06 8.86028E+05
 -1      1782 3.36233E+05-1.92170E+06-5.93427E+05-7.90337E+06 1.38144E+06 8.86011E+05
 -1      1783-1.22867E+06-5.74144E+05-6.22730E+05 8.27034E+06 6.88200E+05 7.83387E+05
 -1      1785 1.22809E+06 5.77018E+05 6.42731E+05-8.26946E+06 6.88326E+05 7.83318E+05
 -1      1786 6.78750E+05 2.28219E+06 5.87650E+05 7.15086E+06 9.89255E+05 3.81354E+05
 -1      1787-3.34965E+02 1.11929E+03 1.00079E+04 5.25122E+02 9.89346E+05 3.81304E+05
 -1      1788-6.79420E+05-2.27995E+06-5.67634E+05-7.14981E+06 9.89436E+05 3.81253E+05
 -1      1789-1.32794E+06-3.04507E+05-7.43591E+04 5.51241E+06 6.37537E+05 4.73591E+05
 -1      1791 1.32751E+06 3.05612E+05 9.43600E+04-5.51181E+06 6.37678E+05 4.73514E+05
 -1      1792 1.16736E+06-4.83372E+06 3.14917E+04 1.25797E+06 6.76533E+04 6.83122E+05
 -1      1793-1.13185E+02-5.48408E+01 9.99556E+03 7.12434E+01 6.76357E+04 6.83135E+05
 -1      1794-1.16759E+06 4.83361E+06-1.15005E+04-1.25783E+06 6.76181E+04 6.83147E+05
 -3
 9999
